*Heading
** Job name: Job-8 Model name: Cylinder_2
** Generated by: Abaqus/CAE 2025
*Preprint, echo=NO, model=NO, history=NO, contact=NO
**
** PARTS
**
*Part, name=Part-1
*End Part
**  
**
** ASSEMBLY
**
*Assembly, name=Assembly
**  
*Instance, name=Part-1-1, part=Part-1
*Node
      1, 0.00474999985,           0., 0.00634999992
      2, 0.00474999985,           0., 0.0126999998
      3, 0.00474999985,           0.,           0.
      4, 0.00471254485, 0.00059533288, 0.00634999992
      5, 0.00460076984, 0.00118127698, 0.00634999992
      6, 0.00441643829, 0.00174859166, 0.00634999992
      7, 0.00416245684, 0.00228832988, 0.00634999992
      8, 0.00384283066, 0.00279198005, 0.00634999992
      9, 0.00346260099, 0.00325159868, 0.00634999992
     10, 0.00302776392,  0.003659938, 0.00634999992
     11, 0.00254517724, 0.00401055766, 0.00634999992
     12, 0.00202245172, 0.00429792842, 0.00634999992
     13, 0.00146783073, 0.00451751845, 0.00634999992
     14, 0.000890061259, 0.00466586463, 0.00634999992
     15, 0.000298254978, 0.00474062702, 0.00634999992
     16, -0.000298254978, 0.00474062702, 0.00634999992
     17, -0.000890061259, 0.00466586463, 0.00634999992
     18, -0.00146783073, 0.00451751845, 0.00634999992
     19, -0.00202245172, 0.00429792842, 0.00634999992
     20, -0.00254517724, 0.00401055766, 0.00634999992
     21, -0.00302776392,  0.003659938, 0.00634999992
     22, -0.00346260099, 0.00325159868, 0.00634999992
     23, -0.00384283066, 0.00279198005, 0.00634999992
     24, -0.00416245684, 0.00228832988, 0.00634999992
     25, -0.00441643829, 0.00174859166, 0.00634999992
     26, -0.00460076984, 0.00118127698, 0.00634999992
     27, -0.00471254485, 0.00059533288, 0.00634999992
     28, -0.00474999985,           0., 0.00634999992
     29, -0.00471254485, -0.00059533288, 0.00634999992
     30, -0.00460076984, -0.00118127698, 0.00634999992
     31, -0.00441643829, -0.00174859166, 0.00634999992
     32, -0.00416245684, -0.00228832988, 0.00634999992
     33, -0.00384283066, -0.00279198005, 0.00634999992
     34, -0.00346260099, -0.00325159868, 0.00634999992
     35, -0.00302776392, -0.003659938, 0.00634999992
     36, -0.00254517724, -0.00401055766, 0.00634999992
     37, -0.00202245172, -0.00429792842, 0.00634999992
     38, -0.00146783073, -0.00451751845, 0.00634999992
     39, -0.000890061259, -0.00466586463, 0.00634999992
     40, -0.000298254978, -0.00474062702, 0.00634999992
     41, 0.000298254978, -0.00474062702, 0.00634999992
     42, 0.000890061259, -0.00466586463, 0.00634999992
     43, 0.00146783073, -0.00451751845, 0.00634999992
     44, 0.00202245172, -0.00429792842, 0.00634999992
     45, 0.00254517724, -0.00401055766, 0.00634999992
     46, 0.00302776392, -0.003659938, 0.00634999992
     47, 0.00346260099, -0.00325159868, 0.00634999992
     48, 0.00384283066, -0.00279198005, 0.00634999992
     49, 0.00416245684, -0.00228832988, 0.00634999992
     50, 0.00441643829, -0.00174859166, 0.00634999992
     51, 0.00460076984, -0.00118127698, 0.00634999992
     52, 0.00471254485, -0.00059533288, 0.00634999992
     53, 0.00471254485, -0.00059533288, 0.0126999998
     54, 0.00460076984, -0.00118127698, 0.0126999998
     55, 0.00441643829, -0.00174859166, 0.0126999998
     56, 0.00416245684, -0.00228832988, 0.0126999998
     57, 0.00384283066, -0.00279198005, 0.0126999998
     58, 0.00346260099, -0.00325159868, 0.0126999998
     59, 0.00302776392, -0.003659938, 0.0126999998
     60, 0.00254517724, -0.00401055766, 0.0126999998
     61, 0.00202245172, -0.00429792842, 0.0126999998
     62, 0.00146783073, -0.00451751845, 0.0126999998
     63, 0.000890061259, -0.00466586463, 0.0126999998
     64, 0.000298254978, -0.00474062702, 0.0126999998
     65, -0.000298254978, -0.00474062702, 0.0126999998
     66, -0.000890061259, -0.00466586463, 0.0126999998
     67, -0.00146783073, -0.00451751845, 0.0126999998
     68, -0.00202245172, -0.00429792842, 0.0126999998
     69, -0.00254517724, -0.00401055766, 0.0126999998
     70, -0.00302776392, -0.003659938, 0.0126999998
     71, -0.00346260099, -0.00325159868, 0.0126999998
     72, -0.00384283066, -0.00279198005, 0.0126999998
     73, -0.00416245684, -0.00228832988, 0.0126999998
     74, -0.00441643829, -0.00174859166, 0.0126999998
     75, -0.00460076984, -0.00118127698, 0.0126999998
     76, -0.00471254485, -0.00059533288, 0.0126999998
     77, -0.00474999985,           0., 0.0126999998
     78, -0.00471254485, 0.00059533288, 0.0126999998
     79, -0.00460076984, 0.00118127698, 0.0126999998
     80, -0.00441643829, 0.00174859166, 0.0126999998
     81, -0.00416245684, 0.00228832988, 0.0126999998
     82, -0.00384283066, 0.00279198005, 0.0126999998
     83, -0.00346260099, 0.00325159868, 0.0126999998
     84, -0.00302776392,  0.003659938, 0.0126999998
     85, -0.00254517724, 0.00401055766, 0.0126999998
     86, -0.00202245172, 0.00429792842, 0.0126999998
     87, -0.00146783073, 0.00451751845, 0.0126999998
     88, -0.000890061259, 0.00466586463, 0.0126999998
     89, -0.000298254978, 0.00474062702, 0.0126999998
     90, 0.000298254978, 0.00474062702, 0.0126999998
     91, 0.000890061259, 0.00466586463, 0.0126999998
     92, 0.00146783073, 0.00451751845, 0.0126999998
     93, 0.00202245172, 0.00429792842, 0.0126999998
     94, 0.00254517724, 0.00401055766, 0.0126999998
     95, 0.00302776392,  0.003659938, 0.0126999998
     96, 0.00346260099, 0.00325159868, 0.0126999998
     97, 0.00384283066, 0.00279198005, 0.0126999998
     98, 0.00416245684, 0.00228832988, 0.0126999998
     99, 0.00441643829, 0.00174859166, 0.0126999998
    100, 0.00460076984, 0.00118127698, 0.0126999998
    101, 0.00471254485, 0.00059533288, 0.0126999998
    102, 0.00471254485, 0.00059533288, -7.67409816e-11
    103, 0.00460076984, 0.00118127698, -7.67409816e-11
    104, 0.00441643829, 0.00174859166, -7.67409816e-11
    105, 0.00416245684, 0.00228832988, -7.67409816e-11
    106, 0.00384283066, 0.00279198005, -7.67409816e-11
    107, 0.00346260099, 0.00325159868, -7.67409816e-11
    108, 0.00302776392,  0.003659938, -7.67409816e-11
    109, 0.00254517724, 0.00401055766, -7.67409816e-11
    110, 0.00202245172, 0.00429792842, -7.67409816e-11
    111, 0.00146783073, 0.00451751845, -7.67409816e-11
    112, 0.000890061259, 0.00466586463, -7.67409816e-11
    113, 0.000298254978, 0.00474062702, -7.67409816e-11
    114, -0.000298254978, 0.00474062702, -7.67409816e-11
    115, -0.000890061259, 0.00466586463, -7.67409816e-11
    116, -0.00146783073, 0.00451751845, -7.67409816e-11
    117, -0.00202245172, 0.00429792842, -7.67409816e-11
    118, -0.00254517724, 0.00401055766, -7.67409816e-11
    119, -0.00302776392,  0.003659938, -7.67409816e-11
    120, -0.00346260099, 0.00325159868, -7.67409816e-11
    121, -0.00384283066, 0.00279198005, -7.67409816e-11
    122, -0.00416245684, 0.00228832988, -7.67409816e-11
    123, -0.00441643829, 0.00174859166, -7.67409816e-11
    124, -0.00460076984, 0.00118127698, -7.67409816e-11
    125, -0.00471254485, 0.00059533288, -7.67409816e-11
    126, -0.00474999985,           0., -7.67409816e-11
    127, -0.00471254485, -0.00059533288, -7.67409816e-11
    128, -0.00460076984, -0.00118127698, -7.67409816e-11
    129, -0.00441643829, -0.00174859166, -7.67409816e-11
    130, -0.00416245684, -0.00228832988, -7.67409816e-11
    131, -0.00384283066, -0.00279198005, -7.67409816e-11
    132, -0.00346260099, -0.00325159868, -7.67409816e-11
    133, -0.00302776392, -0.003659938, -7.67409816e-11
    134, -0.00254517724, -0.00401055766, -7.67409816e-11
    135, -0.00202245172, -0.00429792842, -7.67409816e-11
    136, -0.00146783073, -0.00451751845, -7.67409816e-11
    137, -0.000890061259, -0.00466586463, -7.67409816e-11
    138, -0.000298254978, -0.00474062702, -7.67409816e-11
    139, 0.000298254978, -0.00474062702, -7.67409816e-11
    140, 0.000890061259, -0.00466586463, -7.67409816e-11
    141, 0.00146783073, -0.00451751845, -7.67409816e-11
    142, 0.00202245172, -0.00429792842, -7.67409816e-11
    143, 0.00254517724, -0.00401055766, -7.67409816e-11
    144, 0.00302776392, -0.003659938, -7.67409816e-11
    145, 0.00346260099, -0.00325159868, -7.67409816e-11
    146, 0.00384283066, -0.00279198005, -7.67409816e-11
    147, 0.00416245684, -0.00228832988, -7.67409816e-11
    148, 0.00441643829, -0.00174859166, -7.67409816e-11
    149, 0.00460076984, -0.00118127698, -7.67409816e-11
    150, 0.00471254485, -0.00059533288, -7.67409816e-11
    151, -0.00135324989, 0.00396553334, 0.00634999992
    152, -0.00402056053, 0.00101029815, 0.00634999992
    153, -0.00297016394, -0.00289217359, 0.00634999992
    154, 0.00397308171, 0.000992201152, 0.00634999992
    155, 0.00212350115, 0.00354511268, 0.00634999992
    156, 0.00125990773, -0.00400250824, 0.00634999992
    157, 0.00314467889, -0.00292053982, 0.00634999992
    158, 0.00374832447, -0.00209765113, 0.00634999992
    159, 0.00407549227, -0.0011225834, 0.00634999992
    160, 0.00415758137, -6.347007e-05, 0.00634999992
    161, 0.00409602048, 0.000468003738, 0.00634999992
    162, 0.0037879236, 0.00149980339, 0.00634999992
    163, 0.00325157144, 0.00243436219, 0.00634999992
    164, 0.00253152288, 0.00322010578, 0.00634999992
    165, 0.00169254269, 0.0038232198, 0.00634999992
    166, 0.000712110021, 0.00416869624, 0.00634999992
    167, -0.000841098255, 0.00411218498, 0.00634999992
    168, -0.00274003926, 0.00317171472, 0.00634999992
    169, -0.00347115193, 0.00247505447, 0.00634999992
    170, -0.0038807285, 0.00153199071, 0.00634999992
    171, -0.00414161896, -0.000574599137, 0.00634999992
    172, -0.00387396198, -0.0015894291, 0.00634999992
    173, -0.00332311704, -0.0024855223, 0.00634999992
    174, -0.00166725682, -0.00383298844, 0.00634999992
    175, -0.000695951923, -0.0042049773, 0.00634999992
    176, 0.000772389176, -0.00419611763, 0.00634999992
    177, 0.00175150984, -0.00376692018, 0.00634999992
    178, 0.00271001016, -0.00320286886, 0.00634999992
    179, 0.00348136015, -0.00254004332, 0.00634999992
    180, 0.00394045236, -0.00162366871, 0.00634999992
    181, 0.00414883252, -0.000596157275, 0.00634999992
    182, 0.00351941655, 0.000324701221, 0.00634999992
    183, 0.00204495573, 0.00282008061, 0.00634999992
    184, -0.00282244734, -0.00216782326, 0.00634999992
    185, -0.000771973282, 0.00357665564, 0.00634999992
    186, -0.00333736744, 0.00136134401, 0.00634999992
    187, 0.000988309504, -0.00351155247, 0.00634999992
    188, 0.00055882131, -0.00375104626, 0.00634999992
    189, 0.00291620707, -0.0026352373, 0.00634999992
    190, 0.00245204382, -0.00265190401, 0.00634999992
    191, 0.0017081257, 0.00312953047, 0.00634999992
    192, 0.00320142228, 0.00125144038, 0.00634999992
    193, 0.00344620412, -0.00153000653, 0.00634999992
    194, 0.00361137488, -0.000615609053, 0.00634999992
    195, 0.00354529684, 0.0019814691, 0.00634999992
    196, 0.00291160378, 0.00284737698, 0.00634999992
    197, -0.00256794249, -0.00325510488, 0.00634999992
    198, 0.00121839147, 0.00404197443, 0.00634999992
    199, -0.00362852868, -0.00204763818, 0.00634999992
    200, -0.0018484731, 0.00375401648, 0.00634999992
    201, -0.00411584042, 0.000482196308, 0.00634999992
    202, -0.00312830484, 0.00284483354, 0.00634999992
    203, -0.00370325963, 0.00202818681, 0.00634999992
    204, -0.004051005, -0.00109450193, 0.00634999992
    205, 0.00223719073, -0.00349180237, 0.00634999992
    206, -0.00119344355, -0.00404366432, 0.00634999992
    207, 0.000197806672, 0.00421733828, 0.00634999992
    208, -0.00212981319, -0.00356914126, 0.00634999992
    209, -0.000204375261, -0.00430176966, 0.00634999992
    210, -0.00416028267, -4.47708662e-05, 0.00634999992
    211, -0.00230909651, 0.00348860933, 0.00634999992
    212, 0.0011545578, -0.0027996928, 0.00634999992
    213, 0.00156899134, 0.00246603554, 0.00634999992
    214, -0.00354788383, 0.000372098963, 0.00634999992
    215, -0.00166805799, 0.00325595844, 0.00634999992
    216, -0.00212933798, -0.00286842952, 0.00634999992
    217, -0.0033795936, -0.00140367029, 0.00634999992
    218, -0.00245898636, 0.00267885718, 0.00634999992
    219, -0.00356690213, -0.0010022528, 0.00634999992
    220, 0.00238249777, 0.00247614784, 0.00634999992
    221, -0.00320774689, 0.00183734798, 0.00634999992
    222, 0.00145717501, -0.00326528074, 0.00634999992
    223, -0.00207244186, 0.0029983623, 0.00634999992
    224, -0.00130714767, -0.00338947773, 0.00634999992
    225, 0.000140731077, 0.00371151417, 0.00634999992
    226, -0.00172811642, -0.0031537991, 0.00634999992
    227, -0.00362091744, -0.000560386456, 0.00634999992
    228, -0.00360488612, -0.000101052217, 0.00634999992
    229, 0.00137465156, 0.00340616587, 0.00634999992
    230, 0.00296684611, 0.0016876508, 0.00634999992
    231, -0.00313480734, -0.000599588093, 0.00634999992
    232, -0.00148921448, 0.00282661617, 0.00634999992
    233, -0.00301071326, 0.000265140668, 0.00634999992
    234, -0.00171224575, -0.00250490871, 0.00634999992
    235, -0.00182060245, 0.00256777345, 0.00634999992
    236, -0.00135453546, -0.0027738472, 0.00634999992
    237,  0.001870826,  0.002135196, 0.00634999992
    238, -0.00282380497, 0.00123672944, 0.00634999992
    239, 0.00205148384, -0.00223219814, 0.00634999992
    240, 0.00100395468, 0.00362518849, 0.00634999992
    241, 0.000152082255, 0.00321342587, 0.00634999992
    242, 0.000156014619, -0.00336919143, 0.00634999992
    243, -0.00249434332, -0.00253175036, 0.00634999992
    244, -0.00122060697, 0.00345152454, 0.00634999992
    245, -0.00346104824, 0.000866823015, 0.00634999992
    246, 0.00128685881, 0.00278062373, 0.00634999992
    247, 0.00161891407, -0.00253219646, 0.00634999992
    248, -0.000900272455, -0.0035955233, 0.00634999992
    249, -0.0012980618, -0.00218321267, 0.00634999992
    250, -0.00134095387, 0.00252467697, 0.00634999992
    251, 0.00269140187, 0.00209695008, 0.00634999992
    252, 0.00137190078, 0.00182387407, 0.00634999992
    253, -0.000564105227, -0.00319002755, 0.00634999992
    254, 0.00110149034, 0.00216783886, 0.00634999992
    255, 0.000847242423, -0.00232953043, 0.00634999992
    256, 0.00174873474, -0.00182702171, 0.00634999992
    257, 0.00058890396, 0.00371043221, 0.00634999992
    258, -0.00216334779, 0.00220700284, 0.00634999992
    259, 0.00243393006, -0.00186947593, 0.00634999992
    260, -0.000690910092, 0.00305446191, 0.00634999992
    261, -0.000485159166, -0.00377474586, 0.00634999992
    262, 0.000876111619, 0.00152649579, 0.00634999992
    263, -0.00160967186, -0.00190408016, 0.00634999992
    264, -0.0010938209, -0.00245171133, 0.00634999992
    265, -0.00175259309, 0.00184043497, 0.00634999992
    266, -0.000186767342, 0.00261800084, 0.00634999992
    267, 0.00215857429, 0.00178177387, 0.00634999992
    268, -0.000160787502, -0.00287347427, 0.00634999992
    269, 0.000860432629, 0.00251776353, 0.00634999992
    270, 0.0028853002, -0.00150461926, 0.00634999992
    271, -0.00282635377, 0.00239056721, 0.00634999992
    272, 0.000548588345, 0.00327916909, 0.00634999992
    273, -0.00103522185, 0.00252056657, 0.00634999992
    274, 0.00283275265, 0.000586048176, 0.00634999992
    275, 0.00215272489, -0.00154284958, 0.00634999992
    276, 0.00333265262, -0.00193863653, 0.00634999992
    277, 0.00355281425, -0.00108770491, 0.00634999992
    278, 0.00359481131, -0.000145130383, 0.00634999992
    279, -0.0023359023, -0.00183082477, 0.00634999992
    280, 0.00306482054, -0.000248516328, 0.00634999992
    281, 0.000667472021, 0.00288068084, 0.00634999992
    282, 0.00104305637, 0.00307724578, 0.00634999992
    283, -0.00083199935, -0.00185014843, 0.00634999992
    284, -0.000604834524, 0.00196997123, 0.00634999992
    285, -0.00259547913, 0.00179638213, 0.00634999992
    286, 3.88241388e-05, -0.00210830895, 0.00634999992
    287, 0.00164725259, 0.00148151908, 0.00634999992
    288, 0.00242095604, 0.00140251254, 0.00634999992
    289, 0.000627421017, 0.00191148254, 0.00634999992
    290, -0.0013811196,  -0.00135007, 0.00634999992
    291, 0.00275410013, -0.00101068977, 0.00634999992
    292, -0.00187416759, -0.00152094779, 0.00634999992
    293, -0.00242865551, 0.00105836208, 0.00634999992
    294, -6.0290673e-05, 0.0021352896, 0.00634999992
    295, 0.00257243309, -0.000391532725, 0.00634999992
    296, -0.00263268594, -0.00146373489, 0.00634999992
    297, 0.00191721506, -0.00118202239, 0.00634999992
    298, -0.000580140157, -0.00244367123, 0.00634999992
    299, -0.00201350613, 0.00129957171, 0.00634999992
    300, 0.00106725481, -0.00164589926, 0.00634999992
    301, 0.00114658801, 0.00117507228, 0.00634999992
    302, 0.00190618366, 0.00112789962, 0.00634999992
    303, 0.000366628345, 0.00123818335, 0.00634999992
    304, 0.000416493887, 0.00231370912, 0.00634999992
    305, -0.00103527016, -0.000848668802, 0.00634999992
    306, 0.00296931528, 0.000166841462, 0.00634999992
    307, 0.00151707651, -0.00142398698, 0.00634999992
    308, -0.000801510876, 0.00128439965, 0.00634999992
    309, -0.000209167163, -0.00161284197, 0.00634999992
    310, -0.00296090939, -0.00114833191, 0.00634999992
    311, 0.0024549847, -1.4813204e-05, 0.00634999992
    312, 0.000914154225, -0.00122501259, 0.00634999992
    313, 0.00134233665, -0.00103631616, 0.00634999992
    314, 0.00143360544, 0.000859176042, 0.00634999992
    315, 0.00212829164, 0.000752113643, 0.00634999992
    316, -0.00294047943, 0.000742614502, 0.00634999992
    317, 0.00230799569, 0.000370419933, 0.00634999992
    318, 0.00311195711, -0.000649643189, 0.00634999992
    319, 0.00213276432, -0.000587722694, 0.00634999992
    320, -0.000944585889, -0.00296284794, 0.00634999992
    321, 0.000141423341, 0.00168791867, 0.00634999992
    322, 0.000622865162, 0.000741376076, 0.00634999992
    323, -0.000340482773, 0.00149200519, 0.00634999992
    324, 0.000361654878, -0.0012826228, 0.00634999992
    325, -0.0012926287, 0.00166836032, 0.00634999992
    326, 0.000613496988, -0.000732398708, 0.00634999992
    327, -0.000151188229, 0.0010424651, 0.00634999992
    328, 0.00198280136, -0.000219871872, 0.00634999992
    329, -0.000633230025, 0.000901054882, 0.00634999992
    330, -0.00155415211, 5.21985748e-05, 0.00634999992
    331, -0.00214766851, -0.00102410931, 0.00634999992
    332, -0.00245067058, 0.000644518586, 0.00634999992
    333, 0.00155171473, -0.000442923862, 0.00634999992
    334, 0.00107027742, 0.000601972977, 0.00634999992
    335, -0.00152497459, -0.000917053316, 0.00634999992
    336, -0.0010117389, 0.000809108606, 0.00634999992
    337, -0.00268690172, -0.000761706033, 0.00634999992
    338, -0.00312115229, -0.00178152137, 0.00634999992
    339, -5.57922613e-06, -0.000881481101, 0.00634999992
    340, -0.00207330636, -0.000427376159, 0.00634999992
    341, 0.00182075496, 0.000146054736, 0.00634999992
    342, -0.000550453085, 0.000462105003, 0.00634999992
    343, 0.00117953774, -0.000669663481, 0.00634999992
    344, -0.0020269223, 9.98058604e-05, 0.00634999992
    345, -0.000749598257, -0.000406963052, 0.00634999992
    346, 0.00116893614, 0.000262420217, 0.00634999992
    347, 0.000619583181, 5.30813522e-05, 0.00634999992
    348, -0.00107353542, 1.94925287e-05, 0.00634999992
    349, -1.23417567e-05, 0.000577200612, 0.00634999992
    350, 3.34280012e-05, 8.49908902e-05, 0.00634999992
    351, 0.00135823153, -8.93766119e-05, 0.00634999992
    352, 0.000321388652, -0.000485395518, 0.00634999992
    353, -0.000523946073, -4.92745166e-05, 0.00634999992
    354, -0.00157230778, -0.000435936701, 0.00634999992
    355, 0.000943185936, -0.000345294422, 0.00634999992
    356, 0.00164351484, 0.000501646835, 0.00634999992
    357, 0.00264639547, 0.000999862212, 0.00634999992
    358, -0.0011104648, -0.000411461981, 0.00634999992
    359, -0.00257178117, -0.000312425283, 0.00634999992
    360, -0.000269917189, -0.000500896305, 0.00634999992
    361, -0.000318563427, 0.00419643195, 0.00634999992
    362, 0.000291611359, -0.00431829831, 0.00634999992
    363, 0.00338417524, 0.000793792715, 0.00634999992
    364, -0.00030827726, 0.00366496085, 0.00634999992
    365, -0.00315928599, 0.00223519979, 0.00634999992
    366, 0.000259194087, -0.00397536671, 0.00634999992
    367, 0.00193770218, -0.00298756175, 0.00634999992
    368, 0.00307746138, -0.00106590847, 0.00634999992
    369, 0.00298592844, -0.00185081188, 0.00634999992
    370, 0.00273260451, -0.00215353072, 0.00634999992
    371, 0.00311360625, -0.00231958134, 0.00634999992
    372, 0.00066264387, -0.00305879372, 0.00634999992
    373, -7.04654376e-05, -0.00386221963, 0.00634999992
    374, 0.000867682858, 0.0033219764, 0.00634999992
    375, -0.000261262147, 0.0031392735, 0.00634999992
    376, -0.00109555002, 0.00297483732, 0.00634999992
    377, -0.00307588046, -0.000184679564, 0.00634999992
    378, -0.00321494951, -0.000911038136, 0.00634999992
    379, -0.00203649863, -0.00218860968, 0.00634999992
    380, -0.000316440681, -0.00343725714, 0.00634999992
    381, 0.00252299802, -0.0012537532, 0.00634999992
    382, 0.00131519185, -0.00208483613, 0.00634999992
    383, 0.000341322564, -0.00258567906, 0.00634999992
    384, 0.00173294265, -0.000813168241, 0.00634999992
    385, 0.00230122125, -0.000936484255, 0.00634999992
    386, 0.00267677754, -0.000736731279, 0.00634999992
    387, 0.000259082415, 0.00274348469, 0.00634999992
    388, 0.000575505546, -0.00184310519, 0.00634999992
    389, -0.000623953005, 0.00253588241, 0.00634999992
    390, -0.00151159009, 0.0022516863, 0.00634999992
    391, -0.00250703539, 0.000170841202, 0.00634999992
    392, -0.00128795544, -0.00168707827, 0.00634999992
    393, 3.53105897e-05, -0.000303478009, 0.00634999992
    394, 0.000887008209, -0.000876231119, 0.00634999992
    395, -0.00198668684, 0.000639819016, 0.00634999992
    396, -0.0011102251, 0.00210071378, 0.00634999992
    397, -0.00134775729, 0.00112348737, 0.00634999992
    398, -0.000908393471, -0.00129355956, 0.00634999992
    399, -0.00042536456, -0.00114225002, 0.00634999992
    400, -0.00105097017, 0.000458524708, 0.00634999992
    401, -0.000610636838, -0.000723266741, 0.00634999992
    402, -0.000904230517, 0.00162378035, 0.00634999992
    403, -0.00150804105, 0.000569030643, 0.00634999992
    404, -0.00135324989, 0.00396553334, 0.0126999998
    405, -0.00402056053, 0.00101029815, 0.0126999998
    406, -0.00297016394, -0.00289217359, 0.0126999998
    407, 0.00397308171, 0.000992201152, 0.0126999998
    408, 0.00212350115, 0.00354511268, 0.0126999998
    409, 0.00125990773, -0.00400250824, 0.0126999998
    410, 0.00314467889, -0.00292053982, 0.0126999998
    411, 0.00374832447, -0.00209765113, 0.0126999998
    412, 0.00407549227, -0.0011225834, 0.0126999998
    413, 0.00415758137, -6.347007e-05, 0.0126999998
    414, 0.00409602048, 0.000468003738, 0.0126999998
    415, 0.0037879236, 0.00149980339, 0.0126999998
    416, 0.00325157144, 0.00243436219, 0.0126999998
    417, 0.00253152288, 0.00322010578, 0.0126999998
    418, 0.00169254269, 0.0038232198, 0.0126999998
    419, 0.000712110021, 0.00416869624, 0.0126999998
    420, -0.000841098255, 0.00411218498, 0.0126999998
    421, -0.00274003926, 0.00317171472, 0.0126999998
    422, -0.00347115193, 0.00247505447, 0.0126999998
    423, -0.0038807285, 0.00153199071, 0.0126999998
    424, -0.00414161896, -0.000574599137, 0.0126999998
    425, -0.00387396198, -0.0015894291, 0.0126999998
    426, -0.00332311704, -0.0024855223, 0.0126999998
    427, -0.00166725682, -0.00383298844, 0.0126999998
    428, -0.000695951923, -0.0042049773, 0.0126999998
    429, 0.000772389176, -0.00419611763, 0.0126999998
    430, 0.00175150984, -0.00376692018, 0.0126999998
    431, 0.00271001016, -0.00320286886, 0.0126999998
    432, 0.00348136015, -0.00254004332, 0.0126999998
    433, 0.00394045236, -0.00162366871, 0.0126999998
    434, 0.00414883252, -0.000596157275, 0.0126999998
    435, 0.00351941655, 0.000324701221, 0.0126999998
    436, 0.00204495573, 0.00282008061, 0.0126999998
    437, -0.00282244734, -0.00216782326, 0.0126999998
    438, -0.000771973282, 0.00357665564, 0.0126999998
    439, -0.00333736744, 0.00136134401, 0.0126999998
    440, 0.000988309504, -0.00351155247, 0.0126999998
    441, 0.00055882131, -0.00375104626, 0.0126999998
    442, 0.00291620707, -0.0026352373, 0.0126999998
    443, 0.00245204382, -0.00265190401, 0.0126999998
    444, 0.0017081257, 0.00312953047, 0.0126999998
    445, 0.00320142228, 0.00125144038, 0.0126999998
    446, 0.00344620412, -0.00153000653, 0.0126999998
    447, 0.00361137488, -0.000615609053, 0.0126999998
    448, 0.00354529684, 0.0019814691, 0.0126999998
    449, 0.00291160378, 0.00284737698, 0.0126999998
    450, -0.00256794249, -0.00325510488, 0.0126999998
    451, 0.00121839147, 0.00404197443, 0.0126999998
    452, -0.00362852868, -0.00204763818, 0.0126999998
    453, -0.0018484731, 0.00375401648, 0.0126999998
    454, -0.00411584042, 0.000482196308, 0.0126999998
    455, -0.00312830484, 0.00284483354, 0.0126999998
    456, -0.00370325963, 0.00202818681, 0.0126999998
    457, -0.004051005, -0.00109450193, 0.0126999998
    458, 0.00223719073, -0.00349180237, 0.0126999998
    459, -0.00119344355, -0.00404366432, 0.0126999998
    460, 0.000197806672, 0.00421733828, 0.0126999998
    461, -0.00212981319, -0.00356914126, 0.0126999998
    462, -0.000204375261, -0.00430176966, 0.0126999998
    463, -0.00416028267, -4.47708662e-05, 0.0126999998
    464, -0.00230909651, 0.00348860933, 0.0126999998
    465, 0.0011545578, -0.0027996928, 0.0126999998
    466, 0.00156899134, 0.00246603554, 0.0126999998
    467, -0.00354788383, 0.000372098963, 0.0126999998
    468, -0.00166805799, 0.00325595844, 0.0126999998
    469, -0.00212933798, -0.00286842952, 0.0126999998
    470, -0.0033795936, -0.00140367029, 0.0126999998
    471, -0.00245898636, 0.00267885718, 0.0126999998
    472, -0.00356690213, -0.0010022528, 0.0126999998
    473, 0.00238249777, 0.00247614784, 0.0126999998
    474, -0.00320774689, 0.00183734798, 0.0126999998
    475, 0.00145717501, -0.00326528074, 0.0126999998
    476, -0.00207244186, 0.0029983623, 0.0126999998
    477, -0.00130714767, -0.00338947773, 0.0126999998
    478, 0.000140731077, 0.00371151417, 0.0126999998
    479, -0.00172811642, -0.0031537991, 0.0126999998
    480, -0.00362091744, -0.000560386456, 0.0126999998
    481, -0.00360488612, -0.000101052217, 0.0126999998
    482, 0.00137465156, 0.00340616587, 0.0126999998
    483, 0.00296684611, 0.0016876508, 0.0126999998
    484, -0.00313480734, -0.000599588093, 0.0126999998
    485, -0.00148921448, 0.00282661617, 0.0126999998
    486, -0.00301071326, 0.000265140668, 0.0126999998
    487, -0.00171224575, -0.00250490871, 0.0126999998
    488, -0.00182060245, 0.00256777345, 0.0126999998
    489, -0.00135453546, -0.0027738472, 0.0126999998
    490,  0.001870826,  0.002135196, 0.0126999998
    491, -0.00282380497, 0.00123672944, 0.0126999998
    492, 0.00205148384, -0.00223219814, 0.0126999998
    493, 0.00100395468, 0.00362518849, 0.0126999998
    494, 0.000152082255, 0.00321342587, 0.0126999998
    495, 0.000156014619, -0.00336919143, 0.0126999998
    496, -0.00249434332, -0.00253175036, 0.0126999998
    497, -0.00122060697, 0.00345152454, 0.0126999998
    498, -0.00346104824, 0.000866823015, 0.0126999998
    499, 0.00128685881, 0.00278062373, 0.0126999998
    500, 0.00161891407, -0.00253219646, 0.0126999998
    501, -0.000900272455, -0.0035955233, 0.0126999998
    502, -0.0012980618, -0.00218321267, 0.0126999998
    503, -0.00134095387, 0.00252467697, 0.0126999998
    504, 0.00269140187, 0.00209695008, 0.0126999998
    505, 0.00137190078, 0.00182387407, 0.0126999998
    506, -0.000564105227, -0.00319002755, 0.0126999998
    507, 0.00110149034, 0.00216783886, 0.0126999998
    508, 0.000847242423, -0.00232953043, 0.0126999998
    509, 0.00174873474, -0.00182702171, 0.0126999998
    510, 0.00058890396, 0.00371043221, 0.0126999998
    511, -0.00216334779, 0.00220700284, 0.0126999998
    512, 0.00243393006, -0.00186947593, 0.0126999998
    513, -0.000690910092, 0.00305446191, 0.0126999998
    514, -0.000485159166, -0.00377474586, 0.0126999998
    515, 0.000876111619, 0.00152649579, 0.0126999998
    516, -0.00160967186, -0.00190408016, 0.0126999998
    517, -0.0010938209, -0.00245171133, 0.0126999998
    518, -0.00175259309, 0.00184043497, 0.0126999998
    519, -0.000186767342, 0.00261800084, 0.0126999998
    520, 0.00215857429, 0.00178177387, 0.0126999998
    521, -0.000160787502, -0.00287347427, 0.0126999998
    522, 0.000860432629, 0.00251776353, 0.0126999998
    523, 0.0028853002, -0.00150461926, 0.0126999998
    524, -0.00282635377, 0.00239056721, 0.0126999998
    525, 0.000548588345, 0.00327916909, 0.0126999998
    526, -0.00103522185, 0.00252056657, 0.0126999998
    527, 0.00283275265, 0.000586048176, 0.0126999998
    528, 0.00215272489, -0.00154284958, 0.0126999998
    529, 0.00333265262, -0.00193863653, 0.0126999998
    530, 0.00355281425, -0.00108770491, 0.0126999998
    531, 0.00359481131, -0.000145130383, 0.0126999998
    532, -0.0023359023, -0.00183082477, 0.0126999998
    533, 0.00306482054, -0.000248516328, 0.0126999998
    534, 0.000667472021, 0.00288068084, 0.0126999998
    535, 0.00104305637, 0.00307724578, 0.0126999998
    536, -0.00083199935, -0.00185014843, 0.0126999998
    537, -0.000604834524, 0.00196997123, 0.0126999998
    538, -0.00259547913, 0.00179638213, 0.0126999998
    539, 3.88241388e-05, -0.00210830895, 0.0126999998
    540, 0.00164725259, 0.00148151908, 0.0126999998
    541, 0.00242095604, 0.00140251254, 0.0126999998
    542, 0.000627421017, 0.00191148254, 0.0126999998
    543, -0.0013811196,  -0.00135007, 0.0126999998
    544, 0.00275410013, -0.00101068977, 0.0126999998
    545, -0.00187416759, -0.00152094779, 0.0126999998
    546, -0.00242865551, 0.00105836208, 0.0126999998
    547, -6.0290673e-05, 0.0021352896, 0.0126999998
    548, 0.00257243309, -0.000391532725, 0.0126999998
    549, -0.00263268594, -0.00146373489, 0.0126999998
    550, 0.00191721506, -0.00118202239, 0.0126999998
    551, -0.000580140157, -0.00244367123, 0.0126999998
    552, -0.00201350613, 0.00129957171, 0.0126999998
    553, 0.00106725481, -0.00164589926, 0.0126999998
    554, 0.00114658801, 0.00117507228, 0.0126999998
    555, 0.00190618366, 0.00112789962, 0.0126999998
    556, 0.000366628345, 0.00123818335, 0.0126999998
    557, 0.000416493887, 0.00231370912, 0.0126999998
    558, -0.00103527016, -0.000848668802, 0.0126999998
    559, 0.00296931528, 0.000166841462, 0.0126999998
    560, 0.00151707651, -0.00142398698, 0.0126999998
    561, -0.000801510876, 0.00128439965, 0.0126999998
    562, -0.000209167163, -0.00161284197, 0.0126999998
    563, -0.00296090939, -0.00114833191, 0.0126999998
    564, 0.0024549847, -1.4813204e-05, 0.0126999998
    565, 0.000914154225, -0.00122501259, 0.0126999998
    566, 0.00134233665, -0.00103631616, 0.0126999998
    567, 0.00143360544, 0.000859176042, 0.0126999998
    568, 0.00212829164, 0.000752113643, 0.0126999998
    569, -0.00294047943, 0.000742614502, 0.0126999998
    570, 0.00230799569, 0.000370419933, 0.0126999998
    571, 0.00311195711, -0.000649643189, 0.0126999998
    572, 0.00213276432, -0.000587722694, 0.0126999998
    573, -0.000944585889, -0.00296284794, 0.0126999998
    574, 0.000141423341, 0.00168791867, 0.0126999998
    575, 0.000622865162, 0.000741376076, 0.0126999998
    576, -0.000340482773, 0.00149200519, 0.0126999998
    577, 0.000361654878, -0.0012826228, 0.0126999998
    578, -0.0012926287, 0.00166836032, 0.0126999998
    579, 0.000613496988, -0.000732398708, 0.0126999998
    580, -0.000151188229, 0.0010424651, 0.0126999998
    581, 0.00198280136, -0.000219871872, 0.0126999998
    582, -0.000633230025, 0.000901054882, 0.0126999998
    583, -0.00155415211, 5.21985748e-05, 0.0126999998
    584, -0.00214766851, -0.00102410931, 0.0126999998
    585, -0.00245067058, 0.000644518586, 0.0126999998
    586, 0.00155171473, -0.000442923862, 0.0126999998
    587, 0.00107027742, 0.000601972977, 0.0126999998
    588, -0.00152497459, -0.000917053316, 0.0126999998
    589, -0.0010117389, 0.000809108606, 0.0126999998
    590, -0.00268690172, -0.000761706033, 0.0126999998
    591, -0.00312115229, -0.00178152137, 0.0126999998
    592, -5.57922613e-06, -0.000881481101, 0.0126999998
    593, -0.00207330636, -0.000427376159, 0.0126999998
    594, 0.00182075496, 0.000146054736, 0.0126999998
    595, -0.000550453085, 0.000462105003, 0.0126999998
    596, 0.00117953774, -0.000669663481, 0.0126999998
    597, -0.0020269223, 9.98058604e-05, 0.0126999998
    598, -0.000749598257, -0.000406963052, 0.0126999998
    599, 0.00116893614, 0.000262420217, 0.0126999998
    600, 0.000619583181, 5.30813522e-05, 0.0126999998
    601, -0.00107353542, 1.94925287e-05, 0.0126999998
    602, -1.23417567e-05, 0.000577200612, 0.0126999998
    603, 3.34280012e-05, 8.49908902e-05, 0.0126999998
    604, 0.00135823153, -8.93766119e-05, 0.0126999998
    605, 0.000321388652, -0.000485395518, 0.0126999998
    606, -0.000523946073, -4.92745166e-05, 0.0126999998
    607, -0.00157230778, -0.000435936701, 0.0126999998
    608, 0.000943185936, -0.000345294422, 0.0126999998
    609, 0.00164351484, 0.000501646835, 0.0126999998
    610, 0.00264639547, 0.000999862212, 0.0126999998
    611, -0.0011104648, -0.000411461981, 0.0126999998
    612, -0.00257178117, -0.000312425283, 0.0126999998
    613, -0.000269917189, -0.000500896305, 0.0126999998
    614, -0.000318563427, 0.00419643195, 0.0126999998
    615, 0.000291611359, -0.00431829831, 0.0126999998
    616, 0.00338417524, 0.000793792715, 0.0126999998
    617, -0.00030827726, 0.00366496085, 0.0126999998
    618, -0.00315928599, 0.00223519979, 0.0126999998
    619, 0.000259194087, -0.00397536671, 0.0126999998
    620, 0.00193770218, -0.00298756175, 0.0126999998
    621, 0.00307746138, -0.00106590847, 0.0126999998
    622, 0.00298592844, -0.00185081188, 0.0126999998
    623, 0.00273260451, -0.00215353072, 0.0126999998
    624, 0.00311360625, -0.00231958134, 0.0126999998
    625, 0.00066264387, -0.00305879372, 0.0126999998
    626, -7.04654376e-05, -0.00386221963, 0.0126999998
    627, 0.000867682858, 0.0033219764, 0.0126999998
    628, -0.000261262147, 0.0031392735, 0.0126999998
    629, -0.00109555002, 0.00297483732, 0.0126999998
    630, -0.00307588046, -0.000184679564, 0.0126999998
    631, -0.00321494951, -0.000911038136, 0.0126999998
    632, -0.00203649863, -0.00218860968, 0.0126999998
    633, -0.000316440681, -0.00343725714, 0.0126999998
    634, 0.00252299802, -0.0012537532, 0.0126999998
    635, 0.00131519185, -0.00208483613, 0.0126999998
    636, 0.000341322564, -0.00258567906, 0.0126999998
    637, 0.00173294265, -0.000813168241, 0.0126999998
    638, 0.00230122125, -0.000936484255, 0.0126999998
    639, 0.00267677754, -0.000736731279, 0.0126999998
    640, 0.000259082415, 0.00274348469, 0.0126999998
    641, 0.000575505546, -0.00184310519, 0.0126999998
    642, -0.000623953005, 0.00253588241, 0.0126999998
    643, -0.00151159009, 0.0022516863, 0.0126999998
    644, -0.00250703539, 0.000170841202, 0.0126999998
    645, -0.00128795544, -0.00168707827, 0.0126999998
    646, 3.53105897e-05, -0.000303478009, 0.0126999998
    647, 0.000887008209, -0.000876231119, 0.0126999998
    648, -0.00198668684, 0.000639819016, 0.0126999998
    649, -0.0011102251, 0.00210071378, 0.0126999998
    650, -0.00134775729, 0.00112348737, 0.0126999998
    651, -0.000908393471, -0.00129355956, 0.0126999998
    652, -0.00042536456, -0.00114225002, 0.0126999998
    653, -0.00105097017, 0.000458524708, 0.0126999998
    654, -0.000610636838, -0.000723266741, 0.0126999998
    655, -0.000904230517, 0.00162378035, 0.0126999998
    656, -0.00150804105, 0.000569030643, 0.0126999998
    657, 0.00474999985,           0., 0.00692727277
    658, 0.00471254485, 0.00059533288, 0.00692727277
    659, 0.00460076984, 0.00118127698, 0.00692727277
    660, 0.00441643829, 0.00174859166, 0.00692727277
    661, 0.00416245684, 0.00228832988, 0.00692727277
    662, 0.00384283066, 0.00279198005, 0.00692727277
    663, 0.00346260099, 0.00325159868, 0.00692727277
    664, 0.00302776392,  0.003659938, 0.00692727277
    665, 0.00254517724, 0.00401055766, 0.00692727277
    666, 0.00202245172, 0.00429792842, 0.00692727277
    667, 0.00146783073, 0.00451751845, 0.00692727277
    668, 0.000890061259, 0.00466586463, 0.00692727277
    669, 0.000298254978, 0.00474062702, 0.00692727277
    670, -0.000298254978, 0.00474062702, 0.00692727277
    671, -0.000890061259, 0.00466586463, 0.00692727277
    672, -0.00146783073, 0.00451751845, 0.00692727277
    673, -0.00202245172, 0.00429792842, 0.00692727277
    674, -0.00254517724, 0.00401055766, 0.00692727277
    675, -0.00302776392,  0.003659938, 0.00692727277
    676, -0.00346260099, 0.00325159868, 0.00692727277
    677, -0.00384283066, 0.00279198005, 0.00692727277
    678, -0.00416245684, 0.00228832988, 0.00692727277
    679, -0.00441643829, 0.00174859166, 0.00692727277
    680, -0.00460076984, 0.00118127698, 0.00692727277
    681, -0.00471254485, 0.00059533288, 0.00692727277
    682, -0.00474999985,           0., 0.00692727277
    683, -0.00471254485, -0.00059533288, 0.00692727277
    684, -0.00460076984, -0.00118127698, 0.00692727277
    685, -0.00441643829, -0.00174859166, 0.00692727277
    686, -0.00416245684, -0.00228832988, 0.00692727277
    687, -0.00384283066, -0.00279198005, 0.00692727277
    688, -0.00346260099, -0.00325159868, 0.00692727277
    689, -0.00302776392, -0.003659938, 0.00692727277
    690, -0.00254517724, -0.00401055766, 0.00692727277
    691, -0.00202245172, -0.00429792842, 0.00692727277
    692, -0.00146783073, -0.00451751845, 0.00692727277
    693, -0.000890061259, -0.00466586463, 0.00692727277
    694, -0.000298254978, -0.00474062702, 0.00692727277
    695, 0.000298254978, -0.00474062702, 0.00692727277
    696, 0.000890061259, -0.00466586463, 0.00692727277
    697, 0.00146783073, -0.00451751845, 0.00692727277
    698, 0.00202245172, -0.00429792842, 0.00692727277
    699, 0.00254517724, -0.00401055766, 0.00692727277
    700, 0.00302776392, -0.003659938, 0.00692727277
    701, 0.00346260099, -0.00325159868, 0.00692727277
    702, 0.00384283066, -0.00279198005, 0.00692727277
    703, 0.00416245684, -0.00228832988, 0.00692727277
    704, 0.00441643829, -0.00174859166, 0.00692727277
    705, 0.00460076984, -0.00118127698, 0.00692727277
    706, 0.00471254485, -0.00059533288, 0.00692727277
    707, 0.00474999985,           0., 0.00750454515
    708, 0.00471254485, 0.00059533288, 0.00750454515
    709, 0.00460076984, 0.00118127698, 0.00750454515
    710, 0.00441643829, 0.00174859166, 0.00750454515
    711, 0.00416245684, 0.00228832988, 0.00750454515
    712, 0.00384283066, 0.00279198005, 0.00750454515
    713, 0.00346260099, 0.00325159868, 0.00750454515
    714, 0.00302776392,  0.003659938, 0.00750454515
    715, 0.00254517724, 0.00401055766, 0.00750454515
    716, 0.00202245172, 0.00429792842, 0.00750454515
    717, 0.00146783073, 0.00451751845, 0.00750454515
    718, 0.000890061259, 0.00466586463, 0.00750454515
    719, 0.000298254978, 0.00474062702, 0.00750454515
    720, -0.000298254978, 0.00474062702, 0.00750454515
    721, -0.000890061259, 0.00466586463, 0.00750454515
    722, -0.00146783073, 0.00451751845, 0.00750454515
    723, -0.00202245172, 0.00429792842, 0.00750454515
    724, -0.00254517724, 0.00401055766, 0.00750454515
    725, -0.00302776392,  0.003659938, 0.00750454515
    726, -0.00346260099, 0.00325159868, 0.00750454515
    727, -0.00384283066, 0.00279198005, 0.00750454515
    728, -0.00416245684, 0.00228832988, 0.00750454515
    729, -0.00441643829, 0.00174859166, 0.00750454515
    730, -0.00460076984, 0.00118127698, 0.00750454515
    731, -0.00471254485, 0.00059533288, 0.00750454515
    732, -0.00474999985,           0., 0.00750454515
    733, -0.00471254485, -0.00059533288, 0.00750454515
    734, -0.00460076984, -0.00118127698, 0.00750454515
    735, -0.00441643829, -0.00174859166, 0.00750454515
    736, -0.00416245684, -0.00228832988, 0.00750454515
    737, -0.00384283066, -0.00279198005, 0.00750454515
    738, -0.00346260099, -0.00325159868, 0.00750454515
    739, -0.00302776392, -0.003659938, 0.00750454515
    740, -0.00254517724, -0.00401055766, 0.00750454515
    741, -0.00202245172, -0.00429792842, 0.00750454515
    742, -0.00146783073, -0.00451751845, 0.00750454515
    743, -0.000890061259, -0.00466586463, 0.00750454515
    744, -0.000298254978, -0.00474062702, 0.00750454515
    745, 0.000298254978, -0.00474062702, 0.00750454515
    746, 0.000890061259, -0.00466586463, 0.00750454515
    747, 0.00146783073, -0.00451751845, 0.00750454515
    748, 0.00202245172, -0.00429792842, 0.00750454515
    749, 0.00254517724, -0.00401055766, 0.00750454515
    750, 0.00302776392, -0.003659938, 0.00750454515
    751, 0.00346260099, -0.00325159868, 0.00750454515
    752, 0.00384283066, -0.00279198005, 0.00750454515
    753, 0.00416245684, -0.00228832988, 0.00750454515
    754, 0.00441643829, -0.00174859166, 0.00750454515
    755, 0.00460076984, -0.00118127698, 0.00750454515
    756, 0.00471254485, -0.00059533288, 0.00750454515
    757, 0.00474999985,           0.,  0.008081818
    758, 0.00471254485, 0.00059533288,  0.008081818
    759, 0.00460076984, 0.00118127698,  0.008081818
    760, 0.00441643829, 0.00174859166,  0.008081818
    761, 0.00416245684, 0.00228832988,  0.008081818
    762, 0.00384283066, 0.00279198005,  0.008081818
    763, 0.00346260099, 0.00325159868,  0.008081818
    764, 0.00302776392,  0.003659938,  0.008081818
    765, 0.00254517724, 0.00401055766,  0.008081818
    766, 0.00202245172, 0.00429792842,  0.008081818
    767, 0.00146783073, 0.00451751845,  0.008081818
    768, 0.000890061259, 0.00466586463,  0.008081818
    769, 0.000298254978, 0.00474062702,  0.008081818
    770, -0.000298254978, 0.00474062702,  0.008081818
    771, -0.000890061259, 0.00466586463,  0.008081818
    772, -0.00146783073, 0.00451751845,  0.008081818
    773, -0.00202245172, 0.00429792842,  0.008081818
    774, -0.00254517724, 0.00401055766,  0.008081818
    775, -0.00302776392,  0.003659938,  0.008081818
    776, -0.00346260099, 0.00325159868,  0.008081818
    777, -0.00384283066, 0.00279198005,  0.008081818
    778, -0.00416245684, 0.00228832988,  0.008081818
    779, -0.00441643829, 0.00174859166,  0.008081818
    780, -0.00460076984, 0.00118127698,  0.008081818
    781, -0.00471254485, 0.00059533288,  0.008081818
    782, -0.00474999985,           0.,  0.008081818
    783, -0.00471254485, -0.00059533288,  0.008081818
    784, -0.00460076984, -0.00118127698,  0.008081818
    785, -0.00441643829, -0.00174859166,  0.008081818
    786, -0.00416245684, -0.00228832988,  0.008081818
    787, -0.00384283066, -0.00279198005,  0.008081818
    788, -0.00346260099, -0.00325159868,  0.008081818
    789, -0.00302776392, -0.003659938,  0.008081818
    790, -0.00254517724, -0.00401055766,  0.008081818
    791, -0.00202245172, -0.00429792842,  0.008081818
    792, -0.00146783073, -0.00451751845,  0.008081818
    793, -0.000890061259, -0.00466586463,  0.008081818
    794, -0.000298254978, -0.00474062702,  0.008081818
    795, 0.000298254978, -0.00474062702,  0.008081818
    796, 0.000890061259, -0.00466586463,  0.008081818
    797, 0.00146783073, -0.00451751845,  0.008081818
    798, 0.00202245172, -0.00429792842,  0.008081818
    799, 0.00254517724, -0.00401055766,  0.008081818
    800, 0.00302776392, -0.003659938,  0.008081818
    801, 0.00346260099, -0.00325159868,  0.008081818
    802, 0.00384283066, -0.00279198005,  0.008081818
    803, 0.00416245684, -0.00228832988,  0.008081818
    804, 0.00441643829, -0.00174859166,  0.008081818
    805, 0.00460076984, -0.00118127698,  0.008081818
    806, 0.00471254485, -0.00059533288,  0.008081818
    807, 0.00474999985,           0., 0.00865909085
    808, 0.00471254485, 0.00059533288, 0.00865909085
    809, 0.00460076984, 0.00118127698, 0.00865909085
    810, 0.00441643829, 0.00174859166, 0.00865909085
    811, 0.00416245684, 0.00228832988, 0.00865909085
    812, 0.00384283066, 0.00279198005, 0.00865909085
    813, 0.00346260099, 0.00325159868, 0.00865909085
    814, 0.00302776392,  0.003659938, 0.00865909085
    815, 0.00254517724, 0.00401055766, 0.00865909085
    816, 0.00202245172, 0.00429792842, 0.00865909085
    817, 0.00146783073, 0.00451751845, 0.00865909085
    818, 0.000890061259, 0.00466586463, 0.00865909085
    819, 0.000298254978, 0.00474062702, 0.00865909085
    820, -0.000298254978, 0.00474062702, 0.00865909085
    821, -0.000890061259, 0.00466586463, 0.00865909085
    822, -0.00146783073, 0.00451751845, 0.00865909085
    823, -0.00202245172, 0.00429792842, 0.00865909085
    824, -0.00254517724, 0.00401055766, 0.00865909085
    825, -0.00302776392,  0.003659938, 0.00865909085
    826, -0.00346260099, 0.00325159868, 0.00865909085
    827, -0.00384283066, 0.00279198005, 0.00865909085
    828, -0.00416245684, 0.00228832988, 0.00865909085
    829, -0.00441643829, 0.00174859166, 0.00865909085
    830, -0.00460076984, 0.00118127698, 0.00865909085
    831, -0.00471254485, 0.00059533288, 0.00865909085
    832, -0.00474999985,           0., 0.00865909085
    833, -0.00471254485, -0.00059533288, 0.00865909085
    834, -0.00460076984, -0.00118127698, 0.00865909085
    835, -0.00441643829, -0.00174859166, 0.00865909085
    836, -0.00416245684, -0.00228832988, 0.00865909085
    837, -0.00384283066, -0.00279198005, 0.00865909085
    838, -0.00346260099, -0.00325159868, 0.00865909085
    839, -0.00302776392, -0.003659938, 0.00865909085
    840, -0.00254517724, -0.00401055766, 0.00865909085
    841, -0.00202245172, -0.00429792842, 0.00865909085
    842, -0.00146783073, -0.00451751845, 0.00865909085
    843, -0.000890061259, -0.00466586463, 0.00865909085
    844, -0.000298254978, -0.00474062702, 0.00865909085
    845, 0.000298254978, -0.00474062702, 0.00865909085
    846, 0.000890061259, -0.00466586463, 0.00865909085
    847, 0.00146783073, -0.00451751845, 0.00865909085
    848, 0.00202245172, -0.00429792842, 0.00865909085
    849, 0.00254517724, -0.00401055766, 0.00865909085
    850, 0.00302776392, -0.003659938, 0.00865909085
    851, 0.00346260099, -0.00325159868, 0.00865909085
    852, 0.00384283066, -0.00279198005, 0.00865909085
    853, 0.00416245684, -0.00228832988, 0.00865909085
    854, 0.00441643829, -0.00174859166, 0.00865909085
    855, 0.00460076984, -0.00118127698, 0.00865909085
    856, 0.00471254485, -0.00059533288, 0.00865909085
    857, 0.00474999985,           0., 0.00923636369
    858, 0.00471254485, 0.00059533288, 0.00923636369
    859, 0.00460076984, 0.00118127698, 0.00923636369
    860, 0.00441643829, 0.00174859166, 0.00923636369
    861, 0.00416245684, 0.00228832988, 0.00923636369
    862, 0.00384283066, 0.00279198005, 0.00923636369
    863, 0.00346260099, 0.00325159868, 0.00923636369
    864, 0.00302776392,  0.003659938, 0.00923636369
    865, 0.00254517724, 0.00401055766, 0.00923636369
    866, 0.00202245172, 0.00429792842, 0.00923636369
    867, 0.00146783073, 0.00451751845, 0.00923636369
    868, 0.000890061259, 0.00466586463, 0.00923636369
    869, 0.000298254978, 0.00474062702, 0.00923636369
    870, -0.000298254978, 0.00474062702, 0.00923636369
    871, -0.000890061259, 0.00466586463, 0.00923636369
    872, -0.00146783073, 0.00451751845, 0.00923636369
    873, -0.00202245172, 0.00429792842, 0.00923636369
    874, -0.00254517724, 0.00401055766, 0.00923636369
    875, -0.00302776392,  0.003659938, 0.00923636369
    876, -0.00346260099, 0.00325159868, 0.00923636369
    877, -0.00384283066, 0.00279198005, 0.00923636369
    878, -0.00416245684, 0.00228832988, 0.00923636369
    879, -0.00441643829, 0.00174859166, 0.00923636369
    880, -0.00460076984, 0.00118127698, 0.00923636369
    881, -0.00471254485, 0.00059533288, 0.00923636369
    882, -0.00474999985,           0., 0.00923636369
    883, -0.00471254485, -0.00059533288, 0.00923636369
    884, -0.00460076984, -0.00118127698, 0.00923636369
    885, -0.00441643829, -0.00174859166, 0.00923636369
    886, -0.00416245684, -0.00228832988, 0.00923636369
    887, -0.00384283066, -0.00279198005, 0.00923636369
    888, -0.00346260099, -0.00325159868, 0.00923636369
    889, -0.00302776392, -0.003659938, 0.00923636369
    890, -0.00254517724, -0.00401055766, 0.00923636369
    891, -0.00202245172, -0.00429792842, 0.00923636369
    892, -0.00146783073, -0.00451751845, 0.00923636369
    893, -0.000890061259, -0.00466586463, 0.00923636369
    894, -0.000298254978, -0.00474062702, 0.00923636369
    895, 0.000298254978, -0.00474062702, 0.00923636369
    896, 0.000890061259, -0.00466586463, 0.00923636369
    897, 0.00146783073, -0.00451751845, 0.00923636369
    898, 0.00202245172, -0.00429792842, 0.00923636369
    899, 0.00254517724, -0.00401055766, 0.00923636369
    900, 0.00302776392, -0.003659938, 0.00923636369
    901, 0.00346260099, -0.00325159868, 0.00923636369
    902, 0.00384283066, -0.00279198005, 0.00923636369
    903, 0.00416245684, -0.00228832988, 0.00923636369
    904, 0.00441643829, -0.00174859166, 0.00923636369
    905, 0.00460076984, -0.00118127698, 0.00923636369
    906, 0.00471254485, -0.00059533288, 0.00923636369
    907, 0.00474999985,           0., 0.00981363654
    908, 0.00471254485, 0.00059533288, 0.00981363654
    909, 0.00460076984, 0.00118127698, 0.00981363654
    910, 0.00441643829, 0.00174859166, 0.00981363654
    911, 0.00416245684, 0.00228832988, 0.00981363654
    912, 0.00384283066, 0.00279198005, 0.00981363654
    913, 0.00346260099, 0.00325159868, 0.00981363654
    914, 0.00302776392,  0.003659938, 0.00981363654
    915, 0.00254517724, 0.00401055766, 0.00981363654
    916, 0.00202245172, 0.00429792842, 0.00981363654
    917, 0.00146783073, 0.00451751845, 0.00981363654
    918, 0.000890061259, 0.00466586463, 0.00981363654
    919, 0.000298254978, 0.00474062702, 0.00981363654
    920, -0.000298254978, 0.00474062702, 0.00981363654
    921, -0.000890061259, 0.00466586463, 0.00981363654
    922, -0.00146783073, 0.00451751845, 0.00981363654
    923, -0.00202245172, 0.00429792842, 0.00981363654
    924, -0.00254517724, 0.00401055766, 0.00981363654
    925, -0.00302776392,  0.003659938, 0.00981363654
    926, -0.00346260099, 0.00325159868, 0.00981363654
    927, -0.00384283066, 0.00279198005, 0.00981363654
    928, -0.00416245684, 0.00228832988, 0.00981363654
    929, -0.00441643829, 0.00174859166, 0.00981363654
    930, -0.00460076984, 0.00118127698, 0.00981363654
    931, -0.00471254485, 0.00059533288, 0.00981363654
    932, -0.00474999985,           0., 0.00981363654
    933, -0.00471254485, -0.00059533288, 0.00981363654
    934, -0.00460076984, -0.00118127698, 0.00981363654
    935, -0.00441643829, -0.00174859166, 0.00981363654
    936, -0.00416245684, -0.00228832988, 0.00981363654
    937, -0.00384283066, -0.00279198005, 0.00981363654
    938, -0.00346260099, -0.00325159868, 0.00981363654
    939, -0.00302776392, -0.003659938, 0.00981363654
    940, -0.00254517724, -0.00401055766, 0.00981363654
    941, -0.00202245172, -0.00429792842, 0.00981363654
    942, -0.00146783073, -0.00451751845, 0.00981363654
    943, -0.000890061259, -0.00466586463, 0.00981363654
    944, -0.000298254978, -0.00474062702, 0.00981363654
    945, 0.000298254978, -0.00474062702, 0.00981363654
    946, 0.000890061259, -0.00466586463, 0.00981363654
    947, 0.00146783073, -0.00451751845, 0.00981363654
    948, 0.00202245172, -0.00429792842, 0.00981363654
    949, 0.00254517724, -0.00401055766, 0.00981363654
    950, 0.00302776392, -0.003659938, 0.00981363654
    951, 0.00346260099, -0.00325159868, 0.00981363654
    952, 0.00384283066, -0.00279198005, 0.00981363654
    953, 0.00416245684, -0.00228832988, 0.00981363654
    954, 0.00441643829, -0.00174859166, 0.00981363654
    955, 0.00460076984, -0.00118127698, 0.00981363654
    956, 0.00471254485, -0.00059533288, 0.00981363654
    957, 0.00474999985,           0., 0.0103909094
    958, 0.00471254485, 0.00059533288, 0.0103909094
    959, 0.00460076984, 0.00118127698, 0.0103909094
    960, 0.00441643829, 0.00174859166, 0.0103909094
    961, 0.00416245684, 0.00228832988, 0.0103909094
    962, 0.00384283066, 0.00279198005, 0.0103909094
    963, 0.00346260099, 0.00325159868, 0.0103909094
    964, 0.00302776392,  0.003659938, 0.0103909094
    965, 0.00254517724, 0.00401055766, 0.0103909094
    966, 0.00202245172, 0.00429792842, 0.0103909094
    967, 0.00146783073, 0.00451751845, 0.0103909094
    968, 0.000890061259, 0.00466586463, 0.0103909094
    969, 0.000298254978, 0.00474062702, 0.0103909094
    970, -0.000298254978, 0.00474062702, 0.0103909094
    971, -0.000890061259, 0.00466586463, 0.0103909094
    972, -0.00146783073, 0.00451751845, 0.0103909094
    973, -0.00202245172, 0.00429792842, 0.0103909094
    974, -0.00254517724, 0.00401055766, 0.0103909094
    975, -0.00302776392,  0.003659938, 0.0103909094
    976, -0.00346260099, 0.00325159868, 0.0103909094
    977, -0.00384283066, 0.00279198005, 0.0103909094
    978, -0.00416245684, 0.00228832988, 0.0103909094
    979, -0.00441643829, 0.00174859166, 0.0103909094
    980, -0.00460076984, 0.00118127698, 0.0103909094
    981, -0.00471254485, 0.00059533288, 0.0103909094
    982, -0.00474999985,           0., 0.0103909094
    983, -0.00471254485, -0.00059533288, 0.0103909094
    984, -0.00460076984, -0.00118127698, 0.0103909094
    985, -0.00441643829, -0.00174859166, 0.0103909094
    986, -0.00416245684, -0.00228832988, 0.0103909094
    987, -0.00384283066, -0.00279198005, 0.0103909094
    988, -0.00346260099, -0.00325159868, 0.0103909094
    989, -0.00302776392, -0.003659938, 0.0103909094
    990, -0.00254517724, -0.00401055766, 0.0103909094
    991, -0.00202245172, -0.00429792842, 0.0103909094
    992, -0.00146783073, -0.00451751845, 0.0103909094
    993, -0.000890061259, -0.00466586463, 0.0103909094
    994, -0.000298254978, -0.00474062702, 0.0103909094
    995, 0.000298254978, -0.00474062702, 0.0103909094
    996, 0.000890061259, -0.00466586463, 0.0103909094
    997, 0.00146783073, -0.00451751845, 0.0103909094
    998, 0.00202245172, -0.00429792842, 0.0103909094
    999, 0.00254517724, -0.00401055766, 0.0103909094
   1000, 0.00302776392, -0.003659938, 0.0103909094
   1001, 0.00346260099, -0.00325159868, 0.0103909094
   1002, 0.00384283066, -0.00279198005, 0.0103909094
   1003, 0.00416245684, -0.00228832988, 0.0103909094
   1004, 0.00441643829, -0.00174859166, 0.0103909094
   1005, 0.00460076984, -0.00118127698, 0.0103909094
   1006, 0.00471254485, -0.00059533288, 0.0103909094
   1007, 0.00474999985,           0., 0.0109681813
   1008, 0.00471254485, 0.00059533288, 0.0109681813
   1009, 0.00460076984, 0.00118127698, 0.0109681813
   1010, 0.00441643829, 0.00174859166, 0.0109681813
   1011, 0.00416245684, 0.00228832988, 0.0109681813
   1012, 0.00384283066, 0.00279198005, 0.0109681813
   1013, 0.00346260099, 0.00325159868, 0.0109681813
   1014, 0.00302776392,  0.003659938, 0.0109681813
   1015, 0.00254517724, 0.00401055766, 0.0109681813
   1016, 0.00202245172, 0.00429792842, 0.0109681813
   1017, 0.00146783073, 0.00451751845, 0.0109681813
   1018, 0.000890061259, 0.00466586463, 0.0109681813
   1019, 0.000298254978, 0.00474062702, 0.0109681813
   1020, -0.000298254978, 0.00474062702, 0.0109681813
   1021, -0.000890061259, 0.00466586463, 0.0109681813
   1022, -0.00146783073, 0.00451751845, 0.0109681813
   1023, -0.00202245172, 0.00429792842, 0.0109681813
   1024, -0.00254517724, 0.00401055766, 0.0109681813
   1025, -0.00302776392,  0.003659938, 0.0109681813
   1026, -0.00346260099, 0.00325159868, 0.0109681813
   1027, -0.00384283066, 0.00279198005, 0.0109681813
   1028, -0.00416245684, 0.00228832988, 0.0109681813
   1029, -0.00441643829, 0.00174859166, 0.0109681813
   1030, -0.00460076984, 0.00118127698, 0.0109681813
   1031, -0.00471254485, 0.00059533288, 0.0109681813
   1032, -0.00474999985,           0., 0.0109681813
   1033, -0.00471254485, -0.00059533288, 0.0109681813
   1034, -0.00460076984, -0.00118127698, 0.0109681813
   1035, -0.00441643829, -0.00174859166, 0.0109681813
   1036, -0.00416245684, -0.00228832988, 0.0109681813
   1037, -0.00384283066, -0.00279198005, 0.0109681813
   1038, -0.00346260099, -0.00325159868, 0.0109681813
   1039, -0.00302776392, -0.003659938, 0.0109681813
   1040, -0.00254517724, -0.00401055766, 0.0109681813
   1041, -0.00202245172, -0.00429792842, 0.0109681813
   1042, -0.00146783073, -0.00451751845, 0.0109681813
   1043, -0.000890061259, -0.00466586463, 0.0109681813
   1044, -0.000298254978, -0.00474062702, 0.0109681813
   1045, 0.000298254978, -0.00474062702, 0.0109681813
   1046, 0.000890061259, -0.00466586463, 0.0109681813
   1047, 0.00146783073, -0.00451751845, 0.0109681813
   1048, 0.00202245172, -0.00429792842, 0.0109681813
   1049, 0.00254517724, -0.00401055766, 0.0109681813
   1050, 0.00302776392, -0.003659938, 0.0109681813
   1051, 0.00346260099, -0.00325159868, 0.0109681813
   1052, 0.00384283066, -0.00279198005, 0.0109681813
   1053, 0.00416245684, -0.00228832988, 0.0109681813
   1054, 0.00441643829, -0.00174859166, 0.0109681813
   1055, 0.00460076984, -0.00118127698, 0.0109681813
   1056, 0.00471254485, -0.00059533288, 0.0109681813
   1057, 0.00474999985,           0., 0.0115454542
   1058, 0.00471254485, 0.00059533288, 0.0115454542
   1059, 0.00460076984, 0.00118127698, 0.0115454542
   1060, 0.00441643829, 0.00174859166, 0.0115454542
   1061, 0.00416245684, 0.00228832988, 0.0115454542
   1062, 0.00384283066, 0.00279198005, 0.0115454542
   1063, 0.00346260099, 0.00325159868, 0.0115454542
   1064, 0.00302776392,  0.003659938, 0.0115454542
   1065, 0.00254517724, 0.00401055766, 0.0115454542
   1066, 0.00202245172, 0.00429792842, 0.0115454542
   1067, 0.00146783073, 0.00451751845, 0.0115454542
   1068, 0.000890061259, 0.00466586463, 0.0115454542
   1069, 0.000298254978, 0.00474062702, 0.0115454542
   1070, -0.000298254978, 0.00474062702, 0.0115454542
   1071, -0.000890061259, 0.00466586463, 0.0115454542
   1072, -0.00146783073, 0.00451751845, 0.0115454542
   1073, -0.00202245172, 0.00429792842, 0.0115454542
   1074, -0.00254517724, 0.00401055766, 0.0115454542
   1075, -0.00302776392,  0.003659938, 0.0115454542
   1076, -0.00346260099, 0.00325159868, 0.0115454542
   1077, -0.00384283066, 0.00279198005, 0.0115454542
   1078, -0.00416245684, 0.00228832988, 0.0115454542
   1079, -0.00441643829, 0.00174859166, 0.0115454542
   1080, -0.00460076984, 0.00118127698, 0.0115454542
   1081, -0.00471254485, 0.00059533288, 0.0115454542
   1082, -0.00474999985,           0., 0.0115454542
   1083, -0.00471254485, -0.00059533288, 0.0115454542
   1084, -0.00460076984, -0.00118127698, 0.0115454542
   1085, -0.00441643829, -0.00174859166, 0.0115454542
   1086, -0.00416245684, -0.00228832988, 0.0115454542
   1087, -0.00384283066, -0.00279198005, 0.0115454542
   1088, -0.00346260099, -0.00325159868, 0.0115454542
   1089, -0.00302776392, -0.003659938, 0.0115454542
   1090, -0.00254517724, -0.00401055766, 0.0115454542
   1091, -0.00202245172, -0.00429792842, 0.0115454542
   1092, -0.00146783073, -0.00451751845, 0.0115454542
   1093, -0.000890061259, -0.00466586463, 0.0115454542
   1094, -0.000298254978, -0.00474062702, 0.0115454542
   1095, 0.000298254978, -0.00474062702, 0.0115454542
   1096, 0.000890061259, -0.00466586463, 0.0115454542
   1097, 0.00146783073, -0.00451751845, 0.0115454542
   1098, 0.00202245172, -0.00429792842, 0.0115454542
   1099, 0.00254517724, -0.00401055766, 0.0115454542
   1100, 0.00302776392, -0.003659938, 0.0115454542
   1101, 0.00346260099, -0.00325159868, 0.0115454542
   1102, 0.00384283066, -0.00279198005, 0.0115454542
   1103, 0.00416245684, -0.00228832988, 0.0115454542
   1104, 0.00441643829, -0.00174859166, 0.0115454542
   1105, 0.00460076984, -0.00118127698, 0.0115454542
   1106, 0.00471254485, -0.00059533288, 0.0115454542
   1107, 0.00474999985,           0.,  0.012122727
   1108, 0.00471254485, 0.00059533288,  0.012122727
   1109, 0.00460076984, 0.00118127698,  0.012122727
   1110, 0.00441643829, 0.00174859166,  0.012122727
   1111, 0.00416245684, 0.00228832988,  0.012122727
   1112, 0.00384283066, 0.00279198005,  0.012122727
   1113, 0.00346260099, 0.00325159868,  0.012122727
   1114, 0.00302776392,  0.003659938,  0.012122727
   1115, 0.00254517724, 0.00401055766,  0.012122727
   1116, 0.00202245172, 0.00429792842,  0.012122727
   1117, 0.00146783073, 0.00451751845,  0.012122727
   1118, 0.000890061259, 0.00466586463,  0.012122727
   1119, 0.000298254978, 0.00474062702,  0.012122727
   1120, -0.000298254978, 0.00474062702,  0.012122727
   1121, -0.000890061259, 0.00466586463,  0.012122727
   1122, -0.00146783073, 0.00451751845,  0.012122727
   1123, -0.00202245172, 0.00429792842,  0.012122727
   1124, -0.00254517724, 0.00401055766,  0.012122727
   1125, -0.00302776392,  0.003659938,  0.012122727
   1126, -0.00346260099, 0.00325159868,  0.012122727
   1127, -0.00384283066, 0.00279198005,  0.012122727
   1128, -0.00416245684, 0.00228832988,  0.012122727
   1129, -0.00441643829, 0.00174859166,  0.012122727
   1130, -0.00460076984, 0.00118127698,  0.012122727
   1131, -0.00471254485, 0.00059533288,  0.012122727
   1132, -0.00474999985,           0.,  0.012122727
   1133, -0.00471254485, -0.00059533288,  0.012122727
   1134, -0.00460076984, -0.00118127698,  0.012122727
   1135, -0.00441643829, -0.00174859166,  0.012122727
   1136, -0.00416245684, -0.00228832988,  0.012122727
   1137, -0.00384283066, -0.00279198005,  0.012122727
   1138, -0.00346260099, -0.00325159868,  0.012122727
   1139, -0.00302776392, -0.003659938,  0.012122727
   1140, -0.00254517724, -0.00401055766,  0.012122727
   1141, -0.00202245172, -0.00429792842,  0.012122727
   1142, -0.00146783073, -0.00451751845,  0.012122727
   1143, -0.000890061259, -0.00466586463,  0.012122727
   1144, -0.000298254978, -0.00474062702,  0.012122727
   1145, 0.000298254978, -0.00474062702,  0.012122727
   1146, 0.000890061259, -0.00466586463,  0.012122727
   1147, 0.00146783073, -0.00451751845,  0.012122727
   1148, 0.00202245172, -0.00429792842,  0.012122727
   1149, 0.00254517724, -0.00401055766,  0.012122727
   1150, 0.00302776392, -0.003659938,  0.012122727
   1151, 0.00346260099, -0.00325159868,  0.012122727
   1152, 0.00384283066, -0.00279198005,  0.012122727
   1153, 0.00416245684, -0.00228832988,  0.012122727
   1154, 0.00441643829, -0.00174859166,  0.012122727
   1155, 0.00460076984, -0.00118127698,  0.012122727
   1156, 0.00471254485, -0.00059533288,  0.012122727
   1157, -0.00135324989, 0.00396553334, -7.67409816e-11
   1158, -0.00402056053, 0.00101029815, -7.67409816e-11
   1159, -0.00297016394, -0.00289217359, -7.67409816e-11
   1160, 0.00397308171, 0.000992201152, -7.67409816e-11
   1161, 0.00212350115, 0.00354511268, -7.67409816e-11
   1162, 0.00125990773, -0.00400250824, -7.67409816e-11
   1163, 0.00314467889, -0.00292053982, -7.67409816e-11
   1164, 0.00374832447, -0.00209765113, -7.67409816e-11
   1165, 0.00407549227, -0.0011225834, -7.67409816e-11
   1166, 0.00415758137, -6.347007e-05, -7.67409816e-11
   1167, 0.00409602048, 0.000468003738, -7.67409816e-11
   1168, 0.0037879236, 0.00149980339, -7.67409816e-11
   1169, 0.00325157144, 0.00243436219, -7.67409816e-11
   1170, 0.00253152288, 0.00322010578, -7.67409816e-11
   1171, 0.00169254269, 0.0038232198, -7.67409816e-11
   1172, 0.000712110021, 0.00416869624, -7.67409816e-11
   1173, -0.000841098255, 0.00411218498, -7.67409816e-11
   1174, -0.00274003926, 0.00317171472, -7.67409816e-11
   1175, -0.00347115193, 0.00247505447, -7.67409816e-11
   1176, -0.0038807285, 0.00153199071, -7.67409816e-11
   1177, -0.00414161896, -0.000574599137, -7.67409816e-11
   1178, -0.00387396198, -0.0015894291, -7.67409816e-11
   1179, -0.00332311704, -0.0024855223, -7.67409816e-11
   1180, -0.00166725682, -0.00383298844, -7.67409816e-11
   1181, -0.000695951923, -0.0042049773, -7.67409816e-11
   1182, 0.000772389176, -0.00419611763, -7.67409816e-11
   1183, 0.00175150984, -0.00376692018, -7.67409816e-11
   1184, 0.00271001016, -0.00320286886, -7.67409816e-11
   1185, 0.00348136015, -0.00254004332, -7.67409816e-11
   1186, 0.00394045236, -0.00162366871, -7.67409816e-11
   1187, 0.00414883252, -0.000596157275, -7.67409816e-11
   1188, 0.00351941655, 0.000324701221, -7.67409816e-11
   1189, 0.00204495573, 0.00282008061, -7.67409816e-11
   1190, -0.00282244734, -0.00216782326, -7.67409816e-11
   1191, -0.000771973282, 0.00357665564, -7.67409816e-11
   1192, -0.00333736744, 0.00136134401, -7.67409816e-11
   1193, 0.000988309504, -0.00351155247, -7.67409816e-11
   1194, 0.00055882131, -0.00375104626, -7.67409816e-11
   1195, 0.00291620707, -0.0026352373, -7.67409816e-11
   1196, 0.00245204382, -0.00265190401, -7.67409816e-11
   1197, 0.0017081257, 0.00312953047, -7.67409816e-11
   1198, 0.00320142228, 0.00125144038, -7.67409816e-11
   1199, 0.00344620412, -0.00153000653, -7.67409816e-11
   1200, 0.00361137488, -0.000615609053, -7.67409816e-11
   1201, 0.00354529684, 0.0019814691, -7.67409816e-11
   1202, 0.00291160378, 0.00284737698, -7.67409816e-11
   1203, -0.00256794249, -0.00325510488, -7.67409816e-11
   1204, 0.00121839147, 0.00404197443, -7.67409816e-11
   1205, -0.00362852868, -0.00204763818, -7.67409816e-11
   1206, -0.0018484731, 0.00375401648, -7.67409816e-11
   1207, -0.00411584042, 0.000482196308, -7.67409816e-11
   1208, -0.00312830484, 0.00284483354, -7.67409816e-11
   1209, -0.00370325963, 0.00202818681, -7.67409816e-11
   1210, -0.004051005, -0.00109450193, -7.67409816e-11
   1211, 0.00223719073, -0.00349180237, -7.67409816e-11
   1212, -0.00119344355, -0.00404366432, -7.67409816e-11
   1213, 0.000197806672, 0.00421733828, -7.67409816e-11
   1214, -0.00212981319, -0.00356914126, -7.67409816e-11
   1215, -0.000204375261, -0.00430176966, -7.67409816e-11
   1216, -0.00416028267, -4.47708662e-05, -7.67409816e-11
   1217, -0.00230909651, 0.00348860933, -7.67409816e-11
   1218, 0.0011545578, -0.0027996928, -7.67409816e-11
   1219, 0.00156899134, 0.00246603554, -7.67409816e-11
   1220, -0.00354788383, 0.000372098963, -7.67409816e-11
   1221, -0.00166805799, 0.00325595844, -7.67409816e-11
   1222, -0.00212933798, -0.00286842952, -7.67409816e-11
   1223, -0.0033795936, -0.00140367029, -7.67409816e-11
   1224, -0.00245898636, 0.00267885718, -7.67409816e-11
   1225, -0.00356690213, -0.0010022528, -7.67409816e-11
   1226, 0.00238249777, 0.00247614784, -7.67409816e-11
   1227, -0.00320774689, 0.00183734798, -7.67409816e-11
   1228, 0.00145717501, -0.00326528074, -7.67409816e-11
   1229, -0.00207244186, 0.0029983623, -7.67409816e-11
   1230, -0.00130714767, -0.00338947773, -7.67409816e-11
   1231, 0.000140731077, 0.00371151417, -7.67409816e-11
   1232, -0.00172811642, -0.0031537991, -7.67409816e-11
   1233, -0.00362091744, -0.000560386456, -7.67409816e-11
   1234, -0.00360488612, -0.000101052217, -7.67409816e-11
   1235, 0.00137465156, 0.00340616587, -7.67409816e-11
   1236, 0.00296684611, 0.0016876508, -7.67409816e-11
   1237, -0.00313480734, -0.000599588093, -7.67409816e-11
   1238, -0.00148921448, 0.00282661617, -7.67409816e-11
   1239, -0.00301071326, 0.000265140668, -7.67409816e-11
   1240, -0.00171224575, -0.00250490871, -7.67409816e-11
   1241, -0.00182060245, 0.00256777345, -7.67409816e-11
   1242, -0.00135453546, -0.0027738472, -7.67409816e-11
   1243,  0.001870826,  0.002135196, -7.67409816e-11
   1244, -0.00282380497, 0.00123672944, -7.67409816e-11
   1245, 0.00205148384, -0.00223219814, -7.67409816e-11
   1246, 0.00100395468, 0.00362518849, -7.67409816e-11
   1247, 0.000152082255, 0.00321342587, -7.67409816e-11
   1248, 0.000156014619, -0.00336919143, -7.67409816e-11
   1249, -0.00249434332, -0.00253175036, -7.67409816e-11
   1250, -0.00122060697, 0.00345152454, -7.67409816e-11
   1251, -0.00346104824, 0.000866823015, -7.67409816e-11
   1252, 0.00128685881, 0.00278062373, -7.67409816e-11
   1253, 0.00161891407, -0.00253219646, -7.67409816e-11
   1254, -0.000900272455, -0.0035955233, -7.67409816e-11
   1255, -0.0012980618, -0.00218321267, -7.67409816e-11
   1256, -0.00134095387, 0.00252467697, -7.67409816e-11
   1257, 0.00269140187, 0.00209695008, -7.67409816e-11
   1258, 0.00137190078, 0.00182387407, -7.67409816e-11
   1259, -0.000564105227, -0.00319002755, -7.67409816e-11
   1260, 0.00110149034, 0.00216783886, -7.67409816e-11
   1261, 0.000847242423, -0.00232953043, -7.67409816e-11
   1262, 0.00174873474, -0.00182702171, -7.67409816e-11
   1263, 0.00058890396, 0.00371043221, -7.67409816e-11
   1264, -0.00216334779, 0.00220700284, -7.67409816e-11
   1265, 0.00243393006, -0.00186947593, -7.67409816e-11
   1266, -0.000690910092, 0.00305446191, -7.67409816e-11
   1267, -0.000485159166, -0.00377474586, -7.67409816e-11
   1268, 0.000876111619, 0.00152649579, -7.67409816e-11
   1269, -0.00160967186, -0.00190408016, -7.67409816e-11
   1270, -0.0010938209, -0.00245171133, -7.67409816e-11
   1271, -0.00175259309, 0.00184043497, -7.67409816e-11
   1272, -0.000186767342, 0.00261800084, -7.67409816e-11
   1273, 0.00215857429, 0.00178177387, -7.67409816e-11
   1274, -0.000160787502, -0.00287347427, -7.67409816e-11
   1275, 0.000860432629, 0.00251776353, -7.67409816e-11
   1276, 0.0028853002, -0.00150461926, -7.67409816e-11
   1277, -0.00282635377, 0.00239056721, -7.67409816e-11
   1278, 0.000548588345, 0.00327916909, -7.67409816e-11
   1279, -0.00103522185, 0.00252056657, -7.67409816e-11
   1280, 0.00283275265, 0.000586048176, -7.67409816e-11
   1281, 0.00215272489, -0.00154284958, -7.67409816e-11
   1282, 0.00333265262, -0.00193863653, -7.67409816e-11
   1283, 0.00355281425, -0.00108770491, -7.67409816e-11
   1284, 0.00359481131, -0.000145130383, -7.67409816e-11
   1285, -0.0023359023, -0.00183082477, -7.67409816e-11
   1286, 0.00306482054, -0.000248516328, -7.67409816e-11
   1287, 0.000667472021, 0.00288068084, -7.67409816e-11
   1288, 0.00104305637, 0.00307724578, -7.67409816e-11
   1289, -0.00083199935, -0.00185014843, -7.67409816e-11
   1290, -0.000604834524, 0.00196997123, -7.67409816e-11
   1291, -0.00259547913, 0.00179638213, -7.67409816e-11
   1292, 3.88241388e-05, -0.00210830895, -7.67409816e-11
   1293, 0.00164725259, 0.00148151908, -7.67409816e-11
   1294, 0.00242095604, 0.00140251254, -7.67409816e-11
   1295, 0.000627421017, 0.00191148254, -7.67409816e-11
   1296, -0.0013811196,  -0.00135007, -7.67409816e-11
   1297, 0.00275410013, -0.00101068977, -7.67409816e-11
   1298, -0.00187416759, -0.00152094779, -7.67409816e-11
   1299, -0.00242865551, 0.00105836208, -7.67409816e-11
   1300, -6.0290673e-05, 0.0021352896, -7.67409816e-11
   1301, 0.00257243309, -0.000391532725, -7.67409816e-11
   1302, -0.00263268594, -0.00146373489, -7.67409816e-11
   1303, 0.00191721506, -0.00118202239, -7.67409816e-11
   1304, -0.000580140157, -0.00244367123, -7.67409816e-11
   1305, -0.00201350613, 0.00129957171, -7.67409816e-11
   1306, 0.00106725481, -0.00164589926, -7.67409816e-11
   1307, 0.00114658801, 0.00117507228, -7.67409816e-11
   1308, 0.00190618366, 0.00112789962, -7.67409816e-11
   1309, 0.000366628345, 0.00123818335, -7.67409816e-11
   1310, 0.000416493887, 0.00231370912, -7.67409816e-11
   1311, -0.00103527016, -0.000848668802, -7.67409816e-11
   1312, 0.00296931528, 0.000166841462, -7.67409816e-11
   1313, 0.00151707651, -0.00142398698, -7.67409816e-11
   1314, -0.000801510876, 0.00128439965, -7.67409816e-11
   1315, -0.000209167163, -0.00161284197, -7.67409816e-11
   1316, -0.00296090939, -0.00114833191, -7.67409816e-11
   1317, 0.0024549847, -1.4813204e-05, -7.67409816e-11
   1318, 0.000914154225, -0.00122501259, -7.67409816e-11
   1319, 0.00134233665, -0.00103631616, -7.67409816e-11
   1320, 0.00143360544, 0.000859176042, -7.67409816e-11
   1321, 0.00212829164, 0.000752113643, -7.67409816e-11
   1322, -0.00294047943, 0.000742614502, -7.67409816e-11
   1323, 0.00230799569, 0.000370419933, -7.67409816e-11
   1324, 0.00311195711, -0.000649643189, -7.67409816e-11
   1325, 0.00213276432, -0.000587722694, -7.67409816e-11
   1326, -0.000944585889, -0.00296284794, -7.67409816e-11
   1327, 0.000141423341, 0.00168791867, -7.67409816e-11
   1328, 0.000622865162, 0.000741376076, -7.67409816e-11
   1329, -0.000340482773, 0.00149200519, -7.67409816e-11
   1330, 0.000361654878, -0.0012826228, -7.67409816e-11
   1331, -0.0012926287, 0.00166836032, -7.67409816e-11
   1332, 0.000613496988, -0.000732398708, -7.67409816e-11
   1333, -0.000151188229, 0.0010424651, -7.67409816e-11
   1334, 0.00198280136, -0.000219871872, -7.67409816e-11
   1335, -0.000633230025, 0.000901054882, -7.67409816e-11
   1336, -0.00155415211, 5.21985748e-05, -7.67409816e-11
   1337, -0.00214766851, -0.00102410931, -7.67409816e-11
   1338, -0.00245067058, 0.000644518586, -7.67409816e-11
   1339, 0.00155171473, -0.000442923862, -7.67409816e-11
   1340, 0.00107027742, 0.000601972977, -7.67409816e-11
   1341, -0.00152497459, -0.000917053316, -7.67409816e-11
   1342, -0.0010117389, 0.000809108606, -7.67409816e-11
   1343, -0.00268690172, -0.000761706033, -7.67409816e-11
   1344, -0.00312115229, -0.00178152137, -7.67409816e-11
   1345, -5.57922613e-06, -0.000881481101, -7.67409816e-11
   1346, -0.00207330636, -0.000427376159, -7.67409816e-11
   1347, 0.00182075496, 0.000146054736, -7.67409816e-11
   1348, -0.000550453085, 0.000462105003, -7.67409816e-11
   1349, 0.00117953774, -0.000669663481, -7.67409816e-11
   1350, -0.0020269223, 9.98058604e-05, -7.67409816e-11
   1351, -0.000749598257, -0.000406963052, -7.67409816e-11
   1352, 0.00116893614, 0.000262420217, -7.67409816e-11
   1353, 0.000619583181, 5.30813522e-05, -7.67409816e-11
   1354, -0.00107353542, 1.94925287e-05, -7.67409816e-11
   1355, -1.23417567e-05, 0.000577200612, -7.67409816e-11
   1356, 3.34280012e-05, 8.49908902e-05, -7.67409816e-11
   1357, 0.00135823153, -8.93766119e-05, -7.67409816e-11
   1358, 0.000321388652, -0.000485395518, -7.67409816e-11
   1359, -0.000523946073, -4.92745166e-05, -7.67409816e-11
   1360, -0.00157230778, -0.000435936701, -7.67409816e-11
   1361, 0.000943185936, -0.000345294422, -7.67409816e-11
   1362, 0.00164351484, 0.000501646835, -7.67409816e-11
   1363, 0.00264639547, 0.000999862212, -7.67409816e-11
   1364, -0.0011104648, -0.000411461981, -7.67409816e-11
   1365, -0.00257178117, -0.000312425283, -7.67409816e-11
   1366, -0.000269917189, -0.000500896305, -7.67409816e-11
   1367, -0.000318563427, 0.00419643195, -7.67409816e-11
   1368, 0.000291611359, -0.00431829831, -7.67409816e-11
   1369, 0.00338417524, 0.000793792715, -7.67409816e-11
   1370, -0.00030827726, 0.00366496085, -7.67409816e-11
   1371, -0.00315928599, 0.00223519979, -7.67409816e-11
   1372, 0.000259194087, -0.00397536671, -7.67409816e-11
   1373, 0.00193770218, -0.00298756175, -7.67409816e-11
   1374, 0.00307746138, -0.00106590847, -7.67409816e-11
   1375, 0.00298592844, -0.00185081188, -7.67409816e-11
   1376, 0.00273260451, -0.00215353072, -7.67409816e-11
   1377, 0.00311360625, -0.00231958134, -7.67409816e-11
   1378, 0.00066264387, -0.00305879372, -7.67409816e-11
   1379, -7.04654376e-05, -0.00386221963, -7.67409816e-11
   1380, 0.000867682858, 0.0033219764, -7.67409816e-11
   1381, -0.000261262147, 0.0031392735, -7.67409816e-11
   1382, -0.00109555002, 0.00297483732, -7.67409816e-11
   1383, -0.00307588046, -0.000184679564, -7.67409816e-11
   1384, -0.00321494951, -0.000911038136, -7.67409816e-11
   1385, -0.00203649863, -0.00218860968, -7.67409816e-11
   1386, -0.000316440681, -0.00343725714, -7.67409816e-11
   1387, 0.00252299802, -0.0012537532, -7.67409816e-11
   1388, 0.00131519185, -0.00208483613, -7.67409816e-11
   1389, 0.000341322564, -0.00258567906, -7.67409816e-11
   1390, 0.00173294265, -0.000813168241, -7.67409816e-11
   1391, 0.00230122125, -0.000936484255, -7.67409816e-11
   1392, 0.00267677754, -0.000736731279, -7.67409816e-11
   1393, 0.000259082415, 0.00274348469, -7.67409816e-11
   1394, 0.000575505546, -0.00184310519, -7.67409816e-11
   1395, -0.000623953005, 0.00253588241, -7.67409816e-11
   1396, -0.00151159009, 0.0022516863, -7.67409816e-11
   1397, -0.00250703539, 0.000170841202, -7.67409816e-11
   1398, -0.00128795544, -0.00168707827, -7.67409816e-11
   1399, 3.53105897e-05, -0.000303478009, -7.67409816e-11
   1400, 0.000887008209, -0.000876231119, -7.67409816e-11
   1401, -0.00198668684, 0.000639819016, -7.67409816e-11
   1402, -0.0011102251, 0.00210071378, -7.67409816e-11
   1403, -0.00134775729, 0.00112348737, -7.67409816e-11
   1404, -0.000908393471, -0.00129355956, -7.67409816e-11
   1405, -0.00042536456, -0.00114225002, -7.67409816e-11
   1406, -0.00105097017, 0.000458524708, -7.67409816e-11
   1407, -0.000610636838, -0.000723266741, -7.67409816e-11
   1408, -0.000904230517, 0.00162378035, -7.67409816e-11
   1409, -0.00150804105, 0.000569030643, -7.67409816e-11
   1410, 0.00474999985,           0., 0.00577272708
   1411, 0.00471254485, 0.00059533288, 0.00577272708
   1412, 0.00460076984, 0.00118127698, 0.00577272708
   1413, 0.00441643829, 0.00174859166, 0.00577272708
   1414, 0.00416245684, 0.00228832988, 0.00577272708
   1415, 0.00384283066, 0.00279198005, 0.00577272708
   1416, 0.00346260099, 0.00325159868, 0.00577272708
   1417, 0.00302776392,  0.003659938, 0.00577272708
   1418, 0.00254517724, 0.00401055766, 0.00577272708
   1419, 0.00202245172, 0.00429792842, 0.00577272708
   1420, 0.00146783073, 0.00451751845, 0.00577272708
   1421, 0.000890061259, 0.00466586463, 0.00577272708
   1422, 0.000298254978, 0.00474062702, 0.00577272708
   1423, -0.000298254978, 0.00474062702, 0.00577272708
   1424, -0.000890061259, 0.00466586463, 0.00577272708
   1425, -0.00146783073, 0.00451751845, 0.00577272708
   1426, -0.00202245172, 0.00429792842, 0.00577272708
   1427, -0.00254517724, 0.00401055766, 0.00577272708
   1428, -0.00302776392,  0.003659938, 0.00577272708
   1429, -0.00346260099, 0.00325159868, 0.00577272708
   1430, -0.00384283066, 0.00279198005, 0.00577272708
   1431, -0.00416245684, 0.00228832988, 0.00577272708
   1432, -0.00441643829, 0.00174859166, 0.00577272708
   1433, -0.00460076984, 0.00118127698, 0.00577272708
   1434, -0.00471254485, 0.00059533288, 0.00577272708
   1435, -0.00474999985,           0., 0.00577272708
   1436, -0.00471254485, -0.00059533288, 0.00577272708
   1437, -0.00460076984, -0.00118127698, 0.00577272708
   1438, -0.00441643829, -0.00174859166, 0.00577272708
   1439, -0.00416245684, -0.00228832988, 0.00577272708
   1440, -0.00384283066, -0.00279198005, 0.00577272708
   1441, -0.00346260099, -0.00325159868, 0.00577272708
   1442, -0.00302776392, -0.003659938, 0.00577272708
   1443, -0.00254517724, -0.00401055766, 0.00577272708
   1444, -0.00202245172, -0.00429792842, 0.00577272708
   1445, -0.00146783073, -0.00451751845, 0.00577272708
   1446, -0.000890061259, -0.00466586463, 0.00577272708
   1447, -0.000298254978, -0.00474062702, 0.00577272708
   1448, 0.000298254978, -0.00474062702, 0.00577272708
   1449, 0.000890061259, -0.00466586463, 0.00577272708
   1450, 0.00146783073, -0.00451751845, 0.00577272708
   1451, 0.00202245172, -0.00429792842, 0.00577272708
   1452, 0.00254517724, -0.00401055766, 0.00577272708
   1453, 0.00302776392, -0.003659938, 0.00577272708
   1454, 0.00346260099, -0.00325159868, 0.00577272708
   1455, 0.00384283066, -0.00279198005, 0.00577272708
   1456, 0.00416245684, -0.00228832988, 0.00577272708
   1457, 0.00441643829, -0.00174859166, 0.00577272708
   1458, 0.00460076984, -0.00118127698, 0.00577272708
   1459, 0.00471254485, -0.00059533288, 0.00577272708
   1460, 0.00474999985,           0., 0.00519545469
   1461, 0.00471254485, 0.00059533288, 0.00519545469
   1462, 0.00460076984, 0.00118127698, 0.00519545469
   1463, 0.00441643829, 0.00174859166, 0.00519545469
   1464, 0.00416245684, 0.00228832988, 0.00519545469
   1465, 0.00384283066, 0.00279198005, 0.00519545469
   1466, 0.00346260099, 0.00325159868, 0.00519545469
   1467, 0.00302776392,  0.003659938, 0.00519545469
   1468, 0.00254517724, 0.00401055766, 0.00519545469
   1469, 0.00202245172, 0.00429792842, 0.00519545469
   1470, 0.00146783073, 0.00451751845, 0.00519545469
   1471, 0.000890061259, 0.00466586463, 0.00519545469
   1472, 0.000298254978, 0.00474062702, 0.00519545469
   1473, -0.000298254978, 0.00474062702, 0.00519545469
   1474, -0.000890061259, 0.00466586463, 0.00519545469
   1475, -0.00146783073, 0.00451751845, 0.00519545469
   1476, -0.00202245172, 0.00429792842, 0.00519545469
   1477, -0.00254517724, 0.00401055766, 0.00519545469
   1478, -0.00302776392,  0.003659938, 0.00519545469
   1479, -0.00346260099, 0.00325159868, 0.00519545469
   1480, -0.00384283066, 0.00279198005, 0.00519545469
   1481, -0.00416245684, 0.00228832988, 0.00519545469
   1482, -0.00441643829, 0.00174859166, 0.00519545469
   1483, -0.00460076984, 0.00118127698, 0.00519545469
   1484, -0.00471254485, 0.00059533288, 0.00519545469
   1485, -0.00474999985,           0., 0.00519545469
   1486, -0.00471254485, -0.00059533288, 0.00519545469
   1487, -0.00460076984, -0.00118127698, 0.00519545469
   1488, -0.00441643829, -0.00174859166, 0.00519545469
   1489, -0.00416245684, -0.00228832988, 0.00519545469
   1490, -0.00384283066, -0.00279198005, 0.00519545469
   1491, -0.00346260099, -0.00325159868, 0.00519545469
   1492, -0.00302776392, -0.003659938, 0.00519545469
   1493, -0.00254517724, -0.00401055766, 0.00519545469
   1494, -0.00202245172, -0.00429792842, 0.00519545469
   1495, -0.00146783073, -0.00451751845, 0.00519545469
   1496, -0.000890061259, -0.00466586463, 0.00519545469
   1497, -0.000298254978, -0.00474062702, 0.00519545469
   1498, 0.000298254978, -0.00474062702, 0.00519545469
   1499, 0.000890061259, -0.00466586463, 0.00519545469
   1500, 0.00146783073, -0.00451751845, 0.00519545469
   1501, 0.00202245172, -0.00429792842, 0.00519545469
   1502, 0.00254517724, -0.00401055766, 0.00519545469
   1503, 0.00302776392, -0.003659938, 0.00519545469
   1504, 0.00346260099, -0.00325159868, 0.00519545469
   1505, 0.00384283066, -0.00279198005, 0.00519545469
   1506, 0.00416245684, -0.00228832988, 0.00519545469
   1507, 0.00441643829, -0.00174859166, 0.00519545469
   1508, 0.00460076984, -0.00118127698, 0.00519545469
   1509, 0.00471254485, -0.00059533288, 0.00519545469
   1510, 0.00474999985,           0., 0.00461818185
   1511, 0.00471254485, 0.00059533288, 0.00461818185
   1512, 0.00460076984, 0.00118127698, 0.00461818185
   1513, 0.00441643829, 0.00174859166, 0.00461818185
   1514, 0.00416245684, 0.00228832988, 0.00461818185
   1515, 0.00384283066, 0.00279198005, 0.00461818185
   1516, 0.00346260099, 0.00325159868, 0.00461818185
   1517, 0.00302776392,  0.003659938, 0.00461818185
   1518, 0.00254517724, 0.00401055766, 0.00461818185
   1519, 0.00202245172, 0.00429792842, 0.00461818185
   1520, 0.00146783073, 0.00451751845, 0.00461818185
   1521, 0.000890061259, 0.00466586463, 0.00461818185
   1522, 0.000298254978, 0.00474062702, 0.00461818185
   1523, -0.000298254978, 0.00474062702, 0.00461818185
   1524, -0.000890061259, 0.00466586463, 0.00461818185
   1525, -0.00146783073, 0.00451751845, 0.00461818185
   1526, -0.00202245172, 0.00429792842, 0.00461818185
   1527, -0.00254517724, 0.00401055766, 0.00461818185
   1528, -0.00302776392,  0.003659938, 0.00461818185
   1529, -0.00346260099, 0.00325159868, 0.00461818185
   1530, -0.00384283066, 0.00279198005, 0.00461818185
   1531, -0.00416245684, 0.00228832988, 0.00461818185
   1532, -0.00441643829, 0.00174859166, 0.00461818185
   1533, -0.00460076984, 0.00118127698, 0.00461818185
   1534, -0.00471254485, 0.00059533288, 0.00461818185
   1535, -0.00474999985,           0., 0.00461818185
   1536, -0.00471254485, -0.00059533288, 0.00461818185
   1537, -0.00460076984, -0.00118127698, 0.00461818185
   1538, -0.00441643829, -0.00174859166, 0.00461818185
   1539, -0.00416245684, -0.00228832988, 0.00461818185
   1540, -0.00384283066, -0.00279198005, 0.00461818185
   1541, -0.00346260099, -0.00325159868, 0.00461818185
   1542, -0.00302776392, -0.003659938, 0.00461818185
   1543, -0.00254517724, -0.00401055766, 0.00461818185
   1544, -0.00202245172, -0.00429792842, 0.00461818185
   1545, -0.00146783073, -0.00451751845, 0.00461818185
   1546, -0.000890061259, -0.00466586463, 0.00461818185
   1547, -0.000298254978, -0.00474062702, 0.00461818185
   1548, 0.000298254978, -0.00474062702, 0.00461818185
   1549, 0.000890061259, -0.00466586463, 0.00461818185
   1550, 0.00146783073, -0.00451751845, 0.00461818185
   1551, 0.00202245172, -0.00429792842, 0.00461818185
   1552, 0.00254517724, -0.00401055766, 0.00461818185
   1553, 0.00302776392, -0.003659938, 0.00461818185
   1554, 0.00346260099, -0.00325159868, 0.00461818185
   1555, 0.00384283066, -0.00279198005, 0.00461818185
   1556, 0.00416245684, -0.00228832988, 0.00461818185
   1557, 0.00441643829, -0.00174859166, 0.00461818185
   1558, 0.00460076984, -0.00118127698, 0.00461818185
   1559, 0.00471254485, -0.00059533288, 0.00461818185
   1560, 0.00474999985,           0.,  0.004040909
   1561, 0.00471254485, 0.00059533288,  0.004040909
   1562, 0.00460076984, 0.00118127698,  0.004040909
   1563, 0.00441643829, 0.00174859166,  0.004040909
   1564, 0.00416245684, 0.00228832988,  0.004040909
   1565, 0.00384283066, 0.00279198005,  0.004040909
   1566, 0.00346260099, 0.00325159868,  0.004040909
   1567, 0.00302776392,  0.003659938,  0.004040909
   1568, 0.00254517724, 0.00401055766,  0.004040909
   1569, 0.00202245172, 0.00429792842,  0.004040909
   1570, 0.00146783073, 0.00451751845,  0.004040909
   1571, 0.000890061259, 0.00466586463,  0.004040909
   1572, 0.000298254978, 0.00474062702,  0.004040909
   1573, -0.000298254978, 0.00474062702,  0.004040909
   1574, -0.000890061259, 0.00466586463,  0.004040909
   1575, -0.00146783073, 0.00451751845,  0.004040909
   1576, -0.00202245172, 0.00429792842,  0.004040909
   1577, -0.00254517724, 0.00401055766,  0.004040909
   1578, -0.00302776392,  0.003659938,  0.004040909
   1579, -0.00346260099, 0.00325159868,  0.004040909
   1580, -0.00384283066, 0.00279198005,  0.004040909
   1581, -0.00416245684, 0.00228832988,  0.004040909
   1582, -0.00441643829, 0.00174859166,  0.004040909
   1583, -0.00460076984, 0.00118127698,  0.004040909
   1584, -0.00471254485, 0.00059533288,  0.004040909
   1585, -0.00474999985,           0.,  0.004040909
   1586, -0.00471254485, -0.00059533288,  0.004040909
   1587, -0.00460076984, -0.00118127698,  0.004040909
   1588, -0.00441643829, -0.00174859166,  0.004040909
   1589, -0.00416245684, -0.00228832988,  0.004040909
   1590, -0.00384283066, -0.00279198005,  0.004040909
   1591, -0.00346260099, -0.00325159868,  0.004040909
   1592, -0.00302776392, -0.003659938,  0.004040909
   1593, -0.00254517724, -0.00401055766,  0.004040909
   1594, -0.00202245172, -0.00429792842,  0.004040909
   1595, -0.00146783073, -0.00451751845,  0.004040909
   1596, -0.000890061259, -0.00466586463,  0.004040909
   1597, -0.000298254978, -0.00474062702,  0.004040909
   1598, 0.000298254978, -0.00474062702,  0.004040909
   1599, 0.000890061259, -0.00466586463,  0.004040909
   1600, 0.00146783073, -0.00451751845,  0.004040909
   1601, 0.00202245172, -0.00429792842,  0.004040909
   1602, 0.00254517724, -0.00401055766,  0.004040909
   1603, 0.00302776392, -0.003659938,  0.004040909
   1604, 0.00346260099, -0.00325159868,  0.004040909
   1605, 0.00384283066, -0.00279198005,  0.004040909
   1606, 0.00416245684, -0.00228832988,  0.004040909
   1607, 0.00441643829, -0.00174859166,  0.004040909
   1608, 0.00460076984, -0.00118127698,  0.004040909
   1609, 0.00471254485, -0.00059533288,  0.004040909
   1610, 0.00474999985,           0., 0.00346363639
   1611, 0.00471254485, 0.00059533288, 0.00346363639
   1612, 0.00460076984, 0.00118127698, 0.00346363639
   1613, 0.00441643829, 0.00174859166, 0.00346363639
   1614, 0.00416245684, 0.00228832988, 0.00346363639
   1615, 0.00384283066, 0.00279198005, 0.00346363639
   1616, 0.00346260099, 0.00325159868, 0.00346363639
   1617, 0.00302776392,  0.003659938, 0.00346363639
   1618, 0.00254517724, 0.00401055766, 0.00346363639
   1619, 0.00202245172, 0.00429792842, 0.00346363639
   1620, 0.00146783073, 0.00451751845, 0.00346363639
   1621, 0.000890061259, 0.00466586463, 0.00346363639
   1622, 0.000298254978, 0.00474062702, 0.00346363639
   1623, -0.000298254978, 0.00474062702, 0.00346363639
   1624, -0.000890061259, 0.00466586463, 0.00346363639
   1625, -0.00146783073, 0.00451751845, 0.00346363639
   1626, -0.00202245172, 0.00429792842, 0.00346363639
   1627, -0.00254517724, 0.00401055766, 0.00346363639
   1628, -0.00302776392,  0.003659938, 0.00346363639
   1629, -0.00346260099, 0.00325159868, 0.00346363639
   1630, -0.00384283066, 0.00279198005, 0.00346363639
   1631, -0.00416245684, 0.00228832988, 0.00346363639
   1632, -0.00441643829, 0.00174859166, 0.00346363639
   1633, -0.00460076984, 0.00118127698, 0.00346363639
   1634, -0.00471254485, 0.00059533288, 0.00346363639
   1635, -0.00474999985,           0., 0.00346363639
   1636, -0.00471254485, -0.00059533288, 0.00346363639
   1637, -0.00460076984, -0.00118127698, 0.00346363639
   1638, -0.00441643829, -0.00174859166, 0.00346363639
   1639, -0.00416245684, -0.00228832988, 0.00346363639
   1640, -0.00384283066, -0.00279198005, 0.00346363639
   1641, -0.00346260099, -0.00325159868, 0.00346363639
   1642, -0.00302776392, -0.003659938, 0.00346363639
   1643, -0.00254517724, -0.00401055766, 0.00346363639
   1644, -0.00202245172, -0.00429792842, 0.00346363639
   1645, -0.00146783073, -0.00451751845, 0.00346363639
   1646, -0.000890061259, -0.00466586463, 0.00346363639
   1647, -0.000298254978, -0.00474062702, 0.00346363639
   1648, 0.000298254978, -0.00474062702, 0.00346363639
   1649, 0.000890061259, -0.00466586463, 0.00346363639
   1650, 0.00146783073, -0.00451751845, 0.00346363639
   1651, 0.00202245172, -0.00429792842, 0.00346363639
   1652, 0.00254517724, -0.00401055766, 0.00346363639
   1653, 0.00302776392, -0.003659938, 0.00346363639
   1654, 0.00346260099, -0.00325159868, 0.00346363639
   1655, 0.00384283066, -0.00279198005, 0.00346363639
   1656, 0.00416245684, -0.00228832988, 0.00346363639
   1657, 0.00441643829, -0.00174859166, 0.00346363639
   1658, 0.00460076984, -0.00118127698, 0.00346363639
   1659, 0.00471254485, -0.00059533288, 0.00346363639
   1660, 0.00474999985,           0., 0.00288636354
   1661, 0.00471254485, 0.00059533288, 0.00288636354
   1662, 0.00460076984, 0.00118127698, 0.00288636354
   1663, 0.00441643829, 0.00174859166, 0.00288636354
   1664, 0.00416245684, 0.00228832988, 0.00288636354
   1665, 0.00384283066, 0.00279198005, 0.00288636354
   1666, 0.00346260099, 0.00325159868, 0.00288636354
   1667, 0.00302776392,  0.003659938, 0.00288636354
   1668, 0.00254517724, 0.00401055766, 0.00288636354
   1669, 0.00202245172, 0.00429792842, 0.00288636354
   1670, 0.00146783073, 0.00451751845, 0.00288636354
   1671, 0.000890061259, 0.00466586463, 0.00288636354
   1672, 0.000298254978, 0.00474062702, 0.00288636354
   1673, -0.000298254978, 0.00474062702, 0.00288636354
   1674, -0.000890061259, 0.00466586463, 0.00288636354
   1675, -0.00146783073, 0.00451751845, 0.00288636354
   1676, -0.00202245172, 0.00429792842, 0.00288636354
   1677, -0.00254517724, 0.00401055766, 0.00288636354
   1678, -0.00302776392,  0.003659938, 0.00288636354
   1679, -0.00346260099, 0.00325159868, 0.00288636354
   1680, -0.00384283066, 0.00279198005, 0.00288636354
   1681, -0.00416245684, 0.00228832988, 0.00288636354
   1682, -0.00441643829, 0.00174859166, 0.00288636354
   1683, -0.00460076984, 0.00118127698, 0.00288636354
   1684, -0.00471254485, 0.00059533288, 0.00288636354
   1685, -0.00474999985,           0., 0.00288636354
   1686, -0.00471254485, -0.00059533288, 0.00288636354
   1687, -0.00460076984, -0.00118127698, 0.00288636354
   1688, -0.00441643829, -0.00174859166, 0.00288636354
   1689, -0.00416245684, -0.00228832988, 0.00288636354
   1690, -0.00384283066, -0.00279198005, 0.00288636354
   1691, -0.00346260099, -0.00325159868, 0.00288636354
   1692, -0.00302776392, -0.003659938, 0.00288636354
   1693, -0.00254517724, -0.00401055766, 0.00288636354
   1694, -0.00202245172, -0.00429792842, 0.00288636354
   1695, -0.00146783073, -0.00451751845, 0.00288636354
   1696, -0.000890061259, -0.00466586463, 0.00288636354
   1697, -0.000298254978, -0.00474062702, 0.00288636354
   1698, 0.000298254978, -0.00474062702, 0.00288636354
   1699, 0.000890061259, -0.00466586463, 0.00288636354
   1700, 0.00146783073, -0.00451751845, 0.00288636354
   1701, 0.00202245172, -0.00429792842, 0.00288636354
   1702, 0.00254517724, -0.00401055766, 0.00288636354
   1703, 0.00302776392, -0.003659938, 0.00288636354
   1704, 0.00346260099, -0.00325159868, 0.00288636354
   1705, 0.00384283066, -0.00279198005, 0.00288636354
   1706, 0.00416245684, -0.00228832988, 0.00288636354
   1707, 0.00441643829, -0.00174859166, 0.00288636354
   1708, 0.00460076984, -0.00118127698, 0.00288636354
   1709, 0.00471254485, -0.00059533288, 0.00288636354
   1710, 0.00474999985,           0., 0.00230909092
   1711, 0.00471254485, 0.00059533288, 0.00230909092
   1712, 0.00460076984, 0.00118127698, 0.00230909092
   1713, 0.00441643829, 0.00174859166, 0.00230909092
   1714, 0.00416245684, 0.00228832988, 0.00230909092
   1715, 0.00384283066, 0.00279198005, 0.00230909092
   1716, 0.00346260099, 0.00325159868, 0.00230909092
   1717, 0.00302776392,  0.003659938, 0.00230909092
   1718, 0.00254517724, 0.00401055766, 0.00230909092
   1719, 0.00202245172, 0.00429792842, 0.00230909092
   1720, 0.00146783073, 0.00451751845, 0.00230909092
   1721, 0.000890061259, 0.00466586463, 0.00230909092
   1722, 0.000298254978, 0.00474062702, 0.00230909092
   1723, -0.000298254978, 0.00474062702, 0.00230909092
   1724, -0.000890061259, 0.00466586463, 0.00230909092
   1725, -0.00146783073, 0.00451751845, 0.00230909092
   1726, -0.00202245172, 0.00429792842, 0.00230909092
   1727, -0.00254517724, 0.00401055766, 0.00230909092
   1728, -0.00302776392,  0.003659938, 0.00230909092
   1729, -0.00346260099, 0.00325159868, 0.00230909092
   1730, -0.00384283066, 0.00279198005, 0.00230909092
   1731, -0.00416245684, 0.00228832988, 0.00230909092
   1732, -0.00441643829, 0.00174859166, 0.00230909092
   1733, -0.00460076984, 0.00118127698, 0.00230909092
   1734, -0.00471254485, 0.00059533288, 0.00230909092
   1735, -0.00474999985,           0., 0.00230909092
   1736, -0.00471254485, -0.00059533288, 0.00230909092
   1737, -0.00460076984, -0.00118127698, 0.00230909092
   1738, -0.00441643829, -0.00174859166, 0.00230909092
   1739, -0.00416245684, -0.00228832988, 0.00230909092
   1740, -0.00384283066, -0.00279198005, 0.00230909092
   1741, -0.00346260099, -0.00325159868, 0.00230909092
   1742, -0.00302776392, -0.003659938, 0.00230909092
   1743, -0.00254517724, -0.00401055766, 0.00230909092
   1744, -0.00202245172, -0.00429792842, 0.00230909092
   1745, -0.00146783073, -0.00451751845, 0.00230909092
   1746, -0.000890061259, -0.00466586463, 0.00230909092
   1747, -0.000298254978, -0.00474062702, 0.00230909092
   1748, 0.000298254978, -0.00474062702, 0.00230909092
   1749, 0.000890061259, -0.00466586463, 0.00230909092
   1750, 0.00146783073, -0.00451751845, 0.00230909092
   1751, 0.00202245172, -0.00429792842, 0.00230909092
   1752, 0.00254517724, -0.00401055766, 0.00230909092
   1753, 0.00302776392, -0.003659938, 0.00230909092
   1754, 0.00346260099, -0.00325159868, 0.00230909092
   1755, 0.00384283066, -0.00279198005, 0.00230909092
   1756, 0.00416245684, -0.00228832988, 0.00230909092
   1757, 0.00441643829, -0.00174859166, 0.00230909092
   1758, 0.00460076984, -0.00118127698, 0.00230909092
   1759, 0.00471254485, -0.00059533288, 0.00230909092
   1760, 0.00474999985,           0., 0.00173181808
   1761, 0.00471254485, 0.00059533288, 0.00173181808
   1762, 0.00460076984, 0.00118127698, 0.00173181808
   1763, 0.00441643829, 0.00174859166, 0.00173181808
   1764, 0.00416245684, 0.00228832988, 0.00173181808
   1765, 0.00384283066, 0.00279198005, 0.00173181808
   1766, 0.00346260099, 0.00325159868, 0.00173181808
   1767, 0.00302776392,  0.003659938, 0.00173181808
   1768, 0.00254517724, 0.00401055766, 0.00173181808
   1769, 0.00202245172, 0.00429792842, 0.00173181808
   1770, 0.00146783073, 0.00451751845, 0.00173181808
   1771, 0.000890061259, 0.00466586463, 0.00173181808
   1772, 0.000298254978, 0.00474062702, 0.00173181808
   1773, -0.000298254978, 0.00474062702, 0.00173181808
   1774, -0.000890061259, 0.00466586463, 0.00173181808
   1775, -0.00146783073, 0.00451751845, 0.00173181808
   1776, -0.00202245172, 0.00429792842, 0.00173181808
   1777, -0.00254517724, 0.00401055766, 0.00173181808
   1778, -0.00302776392,  0.003659938, 0.00173181808
   1779, -0.00346260099, 0.00325159868, 0.00173181808
   1780, -0.00384283066, 0.00279198005, 0.00173181808
   1781, -0.00416245684, 0.00228832988, 0.00173181808
   1782, -0.00441643829, 0.00174859166, 0.00173181808
   1783, -0.00460076984, 0.00118127698, 0.00173181808
   1784, -0.00471254485, 0.00059533288, 0.00173181808
   1785, -0.00474999985,           0., 0.00173181808
   1786, -0.00471254485, -0.00059533288, 0.00173181808
   1787, -0.00460076984, -0.00118127698, 0.00173181808
   1788, -0.00441643829, -0.00174859166, 0.00173181808
   1789, -0.00416245684, -0.00228832988, 0.00173181808
   1790, -0.00384283066, -0.00279198005, 0.00173181808
   1791, -0.00346260099, -0.00325159868, 0.00173181808
   1792, -0.00302776392, -0.003659938, 0.00173181808
   1793, -0.00254517724, -0.00401055766, 0.00173181808
   1794, -0.00202245172, -0.00429792842, 0.00173181808
   1795, -0.00146783073, -0.00451751845, 0.00173181808
   1796, -0.000890061259, -0.00466586463, 0.00173181808
   1797, -0.000298254978, -0.00474062702, 0.00173181808
   1798, 0.000298254978, -0.00474062702, 0.00173181808
   1799, 0.000890061259, -0.00466586463, 0.00173181808
   1800, 0.00146783073, -0.00451751845, 0.00173181808
   1801, 0.00202245172, -0.00429792842, 0.00173181808
   1802, 0.00254517724, -0.00401055766, 0.00173181808
   1803, 0.00302776392, -0.003659938, 0.00173181808
   1804, 0.00346260099, -0.00325159868, 0.00173181808
   1805, 0.00384283066, -0.00279198005, 0.00173181808
   1806, 0.00416245684, -0.00228832988, 0.00173181808
   1807, 0.00441643829, -0.00174859166, 0.00173181808
   1808, 0.00460076984, -0.00118127698, 0.00173181808
   1809, 0.00471254485, -0.00059533288, 0.00173181808
   1810, 0.00474999985,           0., 0.00115454535
   1811, 0.00471254485, 0.00059533288, 0.00115454535
   1812, 0.00460076984, 0.00118127698, 0.00115454535
   1813, 0.00441643829, 0.00174859166, 0.00115454535
   1814, 0.00416245684, 0.00228832988, 0.00115454535
   1815, 0.00384283066, 0.00279198005, 0.00115454535
   1816, 0.00346260099, 0.00325159868, 0.00115454535
   1817, 0.00302776392,  0.003659938, 0.00115454535
   1818, 0.00254517724, 0.00401055766, 0.00115454535
   1819, 0.00202245172, 0.00429792842, 0.00115454535
   1820, 0.00146783073, 0.00451751845, 0.00115454535
   1821, 0.000890061259, 0.00466586463, 0.00115454535
   1822, 0.000298254978, 0.00474062702, 0.00115454535
   1823, -0.000298254978, 0.00474062702, 0.00115454535
   1824, -0.000890061259, 0.00466586463, 0.00115454535
   1825, -0.00146783073, 0.00451751845, 0.00115454535
   1826, -0.00202245172, 0.00429792842, 0.00115454535
   1827, -0.00254517724, 0.00401055766, 0.00115454535
   1828, -0.00302776392,  0.003659938, 0.00115454535
   1829, -0.00346260099, 0.00325159868, 0.00115454535
   1830, -0.00384283066, 0.00279198005, 0.00115454535
   1831, -0.00416245684, 0.00228832988, 0.00115454535
   1832, -0.00441643829, 0.00174859166, 0.00115454535
   1833, -0.00460076984, 0.00118127698, 0.00115454535
   1834, -0.00471254485, 0.00059533288, 0.00115454535
   1835, -0.00474999985,           0., 0.00115454535
   1836, -0.00471254485, -0.00059533288, 0.00115454535
   1837, -0.00460076984, -0.00118127698, 0.00115454535
   1838, -0.00441643829, -0.00174859166, 0.00115454535
   1839, -0.00416245684, -0.00228832988, 0.00115454535
   1840, -0.00384283066, -0.00279198005, 0.00115454535
   1841, -0.00346260099, -0.00325159868, 0.00115454535
   1842, -0.00302776392, -0.003659938, 0.00115454535
   1843, -0.00254517724, -0.00401055766, 0.00115454535
   1844, -0.00202245172, -0.00429792842, 0.00115454535
   1845, -0.00146783073, -0.00451751845, 0.00115454535
   1846, -0.000890061259, -0.00466586463, 0.00115454535
   1847, -0.000298254978, -0.00474062702, 0.00115454535
   1848, 0.000298254978, -0.00474062702, 0.00115454535
   1849, 0.000890061259, -0.00466586463, 0.00115454535
   1850, 0.00146783073, -0.00451751845, 0.00115454535
   1851, 0.00202245172, -0.00429792842, 0.00115454535
   1852, 0.00254517724, -0.00401055766, 0.00115454535
   1853, 0.00302776392, -0.003659938, 0.00115454535
   1854, 0.00346260099, -0.00325159868, 0.00115454535
   1855, 0.00384283066, -0.00279198005, 0.00115454535
   1856, 0.00416245684, -0.00228832988, 0.00115454535
   1857, 0.00441643829, -0.00174859166, 0.00115454535
   1858, 0.00460076984, -0.00118127698, 0.00115454535
   1859, 0.00471254485, -0.00059533288, 0.00115454535
   1860, 0.00474999985,           0., 0.000577272673
   1861, 0.00471254485, 0.00059533288, 0.000577272673
   1862, 0.00460076984, 0.00118127698, 0.000577272673
   1863, 0.00441643829, 0.00174859166, 0.000577272673
   1864, 0.00416245684, 0.00228832988, 0.000577272673
   1865, 0.00384283066, 0.00279198005, 0.000577272673
   1866, 0.00346260099, 0.00325159868, 0.000577272673
   1867, 0.00302776392,  0.003659938, 0.000577272673
   1868, 0.00254517724, 0.00401055766, 0.000577272673
   1869, 0.00202245172, 0.00429792842, 0.000577272673
   1870, 0.00146783073, 0.00451751845, 0.000577272673
   1871, 0.000890061259, 0.00466586463, 0.000577272673
   1872, 0.000298254978, 0.00474062702, 0.000577272673
   1873, -0.000298254978, 0.00474062702, 0.000577272673
   1874, -0.000890061259, 0.00466586463, 0.000577272673
   1875, -0.00146783073, 0.00451751845, 0.000577272673
   1876, -0.00202245172, 0.00429792842, 0.000577272673
   1877, -0.00254517724, 0.00401055766, 0.000577272673
   1878, -0.00302776392,  0.003659938, 0.000577272673
   1879, -0.00346260099, 0.00325159868, 0.000577272673
   1880, -0.00384283066, 0.00279198005, 0.000577272673
   1881, -0.00416245684, 0.00228832988, 0.000577272673
   1882, -0.00441643829, 0.00174859166, 0.000577272673
   1883, -0.00460076984, 0.00118127698, 0.000577272673
   1884, -0.00471254485, 0.00059533288, 0.000577272673
   1885, -0.00474999985,           0., 0.000577272673
   1886, -0.00471254485, -0.00059533288, 0.000577272673
   1887, -0.00460076984, -0.00118127698, 0.000577272673
   1888, -0.00441643829, -0.00174859166, 0.000577272673
   1889, -0.00416245684, -0.00228832988, 0.000577272673
   1890, -0.00384283066, -0.00279198005, 0.000577272673
   1891, -0.00346260099, -0.00325159868, 0.000577272673
   1892, -0.00302776392, -0.003659938, 0.000577272673
   1893, -0.00254517724, -0.00401055766, 0.000577272673
   1894, -0.00202245172, -0.00429792842, 0.000577272673
   1895, -0.00146783073, -0.00451751845, 0.000577272673
   1896, -0.000890061259, -0.00466586463, 0.000577272673
   1897, -0.000298254978, -0.00474062702, 0.000577272673
   1898, 0.000298254978, -0.00474062702, 0.000577272673
   1899, 0.000890061259, -0.00466586463, 0.000577272673
   1900, 0.00146783073, -0.00451751845, 0.000577272673
   1901, 0.00202245172, -0.00429792842, 0.000577272673
   1902, 0.00254517724, -0.00401055766, 0.000577272673
   1903, 0.00302776392, -0.003659938, 0.000577272673
   1904, 0.00346260099, -0.00325159868, 0.000577272673
   1905, 0.00384283066, -0.00279198005, 0.000577272673
   1906, 0.00416245684, -0.00228832988, 0.000577272673
   1907, 0.00441643829, -0.00174859166, 0.000577272673
   1908, 0.00460076984, -0.00118127698, 0.000577272673
   1909, 0.00471254485, -0.00059533288, 0.000577272673
   1910, -0.00135324989, 0.00396553334, 0.00692727277
   1911, -0.00402056053, 0.00101029815, 0.00692727277
   1912, -0.00297016394, -0.00289217359, 0.00692727277
   1913, 0.00397308171, 0.000992201152, 0.00692727277
   1914, 0.00212350115, 0.00354511268, 0.00692727277
   1915, 0.00125990773, -0.00400250824, 0.00692727277
   1916, 0.00314467889, -0.00292053982, 0.00692727277
   1917, 0.00374832447, -0.00209765113, 0.00692727277
   1918, 0.00407549227, -0.0011225834, 0.00692727277
   1919, 0.00415758137, -6.347007e-05, 0.00692727277
   1920, 0.00409602048, 0.000468003738, 0.00692727277
   1921, 0.0037879236, 0.00149980339, 0.00692727277
   1922, 0.00325157144, 0.00243436219, 0.00692727277
   1923, 0.00253152288, 0.00322010578, 0.00692727277
   1924, 0.00169254269, 0.0038232198, 0.00692727277
   1925, 0.000712110021, 0.00416869624, 0.00692727277
   1926, -0.000841098255, 0.00411218498, 0.00692727277
   1927, -0.00274003926, 0.00317171472, 0.00692727277
   1928, -0.00347115193, 0.00247505447, 0.00692727277
   1929, -0.0038807285, 0.00153199071, 0.00692727277
   1930, -0.00414161896, -0.000574599137, 0.00692727277
   1931, -0.00387396198, -0.0015894291, 0.00692727277
   1932, -0.00332311704, -0.0024855223, 0.00692727277
   1933, -0.00166725682, -0.00383298844, 0.00692727277
   1934, -0.000695951923, -0.0042049773, 0.00692727277
   1935, 0.000772389176, -0.00419611763, 0.00692727277
   1936, 0.00175150984, -0.00376692018, 0.00692727277
   1937, 0.00271001016, -0.00320286886, 0.00692727277
   1938, 0.00348136015, -0.00254004332, 0.00692727277
   1939, 0.00394045236, -0.00162366871, 0.00692727277
   1940, 0.00414883252, -0.000596157275, 0.00692727277
   1941, 0.00351941655, 0.000324701221, 0.00692727277
   1942, 0.00204495573, 0.00282008061, 0.00692727277
   1943, -0.00282244734, -0.00216782326, 0.00692727277
   1944, -0.000771973282, 0.00357665564, 0.00692727277
   1945, -0.00333736744, 0.00136134401, 0.00692727277
   1946, 0.000988309504, -0.00351155247, 0.00692727277
   1947, 0.00055882131, -0.00375104626, 0.00692727277
   1948, 0.00291620707, -0.0026352373, 0.00692727277
   1949, 0.00245204382, -0.00265190401, 0.00692727277
   1950, 0.0017081257, 0.00312953047, 0.00692727277
   1951, 0.00320142228, 0.00125144038, 0.00692727277
   1952, 0.00344620412, -0.00153000653, 0.00692727277
   1953, 0.00361137488, -0.000615609053, 0.00692727277
   1954, 0.00354529684, 0.0019814691, 0.00692727277
   1955, 0.00291160378, 0.00284737698, 0.00692727277
   1956, -0.00256794249, -0.00325510488, 0.00692727277
   1957, 0.00121839147, 0.00404197443, 0.00692727277
   1958, -0.00362852868, -0.00204763818, 0.00692727277
   1959, -0.0018484731, 0.00375401648, 0.00692727277
   1960, -0.00411584042, 0.000482196308, 0.00692727277
   1961, -0.00312830484, 0.00284483354, 0.00692727277
   1962, -0.00370325963, 0.00202818681, 0.00692727277
   1963, -0.004051005, -0.00109450193, 0.00692727277
   1964, 0.00223719073, -0.00349180237, 0.00692727277
   1965, -0.00119344355, -0.00404366432, 0.00692727277
   1966, 0.000197806672, 0.00421733828, 0.00692727277
   1967, -0.00212981319, -0.00356914126, 0.00692727277
   1968, -0.000204375261, -0.00430176966, 0.00692727277
   1969, -0.00416028267, -4.47708662e-05, 0.00692727277
   1970, -0.00230909651, 0.00348860933, 0.00692727277
   1971, 0.0011545578, -0.0027996928, 0.00692727277
   1972, 0.00156899134, 0.00246603554, 0.00692727277
   1973, -0.00354788383, 0.000372098963, 0.00692727277
   1974, -0.00166805799, 0.00325595844, 0.00692727277
   1975, -0.00212933798, -0.00286842952, 0.00692727277
   1976, -0.0033795936, -0.00140367029, 0.00692727277
   1977, -0.00245898636, 0.00267885718, 0.00692727277
   1978, -0.00356690213, -0.0010022528, 0.00692727277
   1979, 0.00238249777, 0.00247614784, 0.00692727277
   1980, -0.00320774689, 0.00183734798, 0.00692727277
   1981, 0.00145717501, -0.00326528074, 0.00692727277
   1982, -0.00207244186, 0.0029983623, 0.00692727277
   1983, -0.00130714767, -0.00338947773, 0.00692727277
   1984, 0.000140731077, 0.00371151417, 0.00692727277
   1985, -0.00172811642, -0.0031537991, 0.00692727277
   1986, -0.00362091744, -0.000560386456, 0.00692727277
   1987, -0.00360488612, -0.000101052217, 0.00692727277
   1988, 0.00137465156, 0.00340616587, 0.00692727277
   1989, 0.00296684611, 0.0016876508, 0.00692727277
   1990, -0.00313480734, -0.000599588093, 0.00692727277
   1991, -0.00148921448, 0.00282661617, 0.00692727277
   1992, -0.00301071326, 0.000265140668, 0.00692727277
   1993, -0.00171224575, -0.00250490871, 0.00692727277
   1994, -0.00182060245, 0.00256777345, 0.00692727277
   1995, -0.00135453546, -0.0027738472, 0.00692727277
   1996,  0.001870826,  0.002135196, 0.00692727277
   1997, -0.00282380497, 0.00123672944, 0.00692727277
   1998, 0.00205148384, -0.00223219814, 0.00692727277
   1999, 0.00100395468, 0.00362518849, 0.00692727277
   2000, 0.000152082255, 0.00321342587, 0.00692727277
   2001, 0.000156014619, -0.00336919143, 0.00692727277
   2002, -0.00249434332, -0.00253175036, 0.00692727277
   2003, -0.00122060697, 0.00345152454, 0.00692727277
   2004, -0.00346104824, 0.000866823015, 0.00692727277
   2005, 0.00128685881, 0.00278062373, 0.00692727277
   2006, 0.00161891407, -0.00253219646, 0.00692727277
   2007, -0.000900272455, -0.0035955233, 0.00692727277
   2008, -0.0012980618, -0.00218321267, 0.00692727277
   2009, -0.00134095387, 0.00252467697, 0.00692727277
   2010, 0.00269140187, 0.00209695008, 0.00692727277
   2011, 0.00137190078, 0.00182387407, 0.00692727277
   2012, -0.000564105227, -0.00319002755, 0.00692727277
   2013, 0.00110149034, 0.00216783886, 0.00692727277
   2014, 0.000847242423, -0.00232953043, 0.00692727277
   2015, 0.00174873474, -0.00182702171, 0.00692727277
   2016, 0.00058890396, 0.00371043221, 0.00692727277
   2017, -0.00216334779, 0.00220700284, 0.00692727277
   2018, 0.00243393006, -0.00186947593, 0.00692727277
   2019, -0.000690910092, 0.00305446191, 0.00692727277
   2020, -0.000485159166, -0.00377474586, 0.00692727277
   2021, 0.000876111619, 0.00152649579, 0.00692727277
   2022, -0.00160967186, -0.00190408016, 0.00692727277
   2023, -0.0010938209, -0.00245171133, 0.00692727277
   2024, -0.00175259309, 0.00184043497, 0.00692727277
   2025, -0.000186767342, 0.00261800084, 0.00692727277
   2026, 0.00215857429, 0.00178177387, 0.00692727277
   2027, -0.000160787502, -0.00287347427, 0.00692727277
   2028, 0.000860432629, 0.00251776353, 0.00692727277
   2029, 0.0028853002, -0.00150461926, 0.00692727277
   2030, -0.00282635377, 0.00239056721, 0.00692727277
   2031, 0.000548588345, 0.00327916909, 0.00692727277
   2032, -0.00103522185, 0.00252056657, 0.00692727277
   2033, 0.00283275265, 0.000586048176, 0.00692727277
   2034, 0.00215272489, -0.00154284958, 0.00692727277
   2035, 0.00333265262, -0.00193863653, 0.00692727277
   2036, 0.00355281425, -0.00108770491, 0.00692727277
   2037, 0.00359481131, -0.000145130383, 0.00692727277
   2038, -0.0023359023, -0.00183082477, 0.00692727277
   2039, 0.00306482054, -0.000248516328, 0.00692727277
   2040, 0.000667472021, 0.00288068084, 0.00692727277
   2041, 0.00104305637, 0.00307724578, 0.00692727277
   2042, -0.00083199935, -0.00185014843, 0.00692727277
   2043, -0.000604834524, 0.00196997123, 0.00692727277
   2044, -0.00259547913, 0.00179638213, 0.00692727277
   2045, 3.88241388e-05, -0.00210830895, 0.00692727277
   2046, 0.00164725259, 0.00148151908, 0.00692727277
   2047, 0.00242095604, 0.00140251254, 0.00692727277
   2048, 0.000627421017, 0.00191148254, 0.00692727277
   2049, -0.0013811196,  -0.00135007, 0.00692727277
   2050, 0.00275410013, -0.00101068977, 0.00692727277
   2051, -0.00187416759, -0.00152094779, 0.00692727277
   2052, -0.00242865551, 0.00105836208, 0.00692727277
   2053, -6.0290673e-05, 0.0021352896, 0.00692727277
   2054, 0.00257243309, -0.000391532725, 0.00692727277
   2055, -0.00263268594, -0.00146373489, 0.00692727277
   2056, 0.00191721506, -0.00118202239, 0.00692727277
   2057, -0.000580140157, -0.00244367123, 0.00692727277
   2058, -0.00201350613, 0.00129957171, 0.00692727277
   2059, 0.00106725481, -0.00164589926, 0.00692727277
   2060, 0.00114658801, 0.00117507228, 0.00692727277
   2061, 0.00190618366, 0.00112789962, 0.00692727277
   2062, 0.000366628345, 0.00123818335, 0.00692727277
   2063, 0.000416493887, 0.00231370912, 0.00692727277
   2064, -0.00103527016, -0.000848668802, 0.00692727277
   2065, 0.00296931528, 0.000166841462, 0.00692727277
   2066, 0.00151707651, -0.00142398698, 0.00692727277
   2067, -0.000801510876, 0.00128439965, 0.00692727277
   2068, -0.000209167163, -0.00161284197, 0.00692727277
   2069, -0.00296090939, -0.00114833191, 0.00692727277
   2070, 0.0024549847, -1.4813204e-05, 0.00692727277
   2071, 0.000914154225, -0.00122501259, 0.00692727277
   2072, 0.00134233665, -0.00103631616, 0.00692727277
   2073, 0.00143360544, 0.000859176042, 0.00692727277
   2074, 0.00212829164, 0.000752113643, 0.00692727277
   2075, -0.00294047943, 0.000742614502, 0.00692727277
   2076, 0.00230799569, 0.000370419933, 0.00692727277
   2077, 0.00311195711, -0.000649643189, 0.00692727277
   2078, 0.00213276432, -0.000587722694, 0.00692727277
   2079, -0.000944585889, -0.00296284794, 0.00692727277
   2080, 0.000141423341, 0.00168791867, 0.00692727277
   2081, 0.000622865162, 0.000741376076, 0.00692727277
   2082, -0.000340482773, 0.00149200519, 0.00692727277
   2083, 0.000361654878, -0.0012826228, 0.00692727277
   2084, -0.0012926287, 0.00166836032, 0.00692727277
   2085, 0.000613496988, -0.000732398708, 0.00692727277
   2086, -0.000151188229, 0.0010424651, 0.00692727277
   2087, 0.00198280136, -0.000219871872, 0.00692727277
   2088, -0.000633230025, 0.000901054882, 0.00692727277
   2089, -0.00155415211, 5.21985748e-05, 0.00692727277
   2090, -0.00214766851, -0.00102410931, 0.00692727277
   2091, -0.00245067058, 0.000644518586, 0.00692727277
   2092, 0.00155171473, -0.000442923862, 0.00692727277
   2093, 0.00107027742, 0.000601972977, 0.00692727277
   2094, -0.00152497459, -0.000917053316, 0.00692727277
   2095, -0.0010117389, 0.000809108606, 0.00692727277
   2096, -0.00268690172, -0.000761706033, 0.00692727277
   2097, -0.00312115229, -0.00178152137, 0.00692727277
   2098, -5.57922613e-06, -0.000881481101, 0.00692727277
   2099, -0.00207330636, -0.000427376159, 0.00692727277
   2100, 0.00182075496, 0.000146054736, 0.00692727277
   2101, -0.000550453085, 0.000462105003, 0.00692727277
   2102, 0.00117953774, -0.000669663481, 0.00692727277
   2103, -0.0020269223, 9.98058604e-05, 0.00692727277
   2104, -0.000749598257, -0.000406963052, 0.00692727277
   2105, 0.00116893614, 0.000262420217, 0.00692727277
   2106, 0.000619583181, 5.30813522e-05, 0.00692727277
   2107, -0.00107353542, 1.94925287e-05, 0.00692727277
   2108, -1.23417567e-05, 0.000577200612, 0.00692727277
   2109, 3.34280012e-05, 8.49908902e-05, 0.00692727277
   2110, 0.00135823153, -8.93766119e-05, 0.00692727277
   2111, 0.000321388652, -0.000485395518, 0.00692727277
   2112, -0.000523946073, -4.92745166e-05, 0.00692727277
   2113, -0.00157230778, -0.000435936701, 0.00692727277
   2114, 0.000943185936, -0.000345294422, 0.00692727277
   2115, 0.00164351484, 0.000501646835, 0.00692727277
   2116, 0.00264639547, 0.000999862212, 0.00692727277
   2117, -0.0011104648, -0.000411461981, 0.00692727277
   2118, -0.00257178117, -0.000312425283, 0.00692727277
   2119, -0.000269917189, -0.000500896305, 0.00692727277
   2120, -0.000318563427, 0.00419643195, 0.00692727277
   2121, 0.000291611359, -0.00431829831, 0.00692727277
   2122, 0.00338417524, 0.000793792715, 0.00692727277
   2123, -0.00030827726, 0.00366496085, 0.00692727277
   2124, -0.00315928599, 0.00223519979, 0.00692727277
   2125, 0.000259194087, -0.00397536671, 0.00692727277
   2126, 0.00193770218, -0.00298756175, 0.00692727277
   2127, 0.00307746138, -0.00106590847, 0.00692727277
   2128, 0.00298592844, -0.00185081188, 0.00692727277
   2129, 0.00273260451, -0.00215353072, 0.00692727277
   2130, 0.00311360625, -0.00231958134, 0.00692727277
   2131, 0.00066264387, -0.00305879372, 0.00692727277
   2132, -7.04654376e-05, -0.00386221963, 0.00692727277
   2133, 0.000867682858, 0.0033219764, 0.00692727277
   2134, -0.000261262147, 0.0031392735, 0.00692727277
   2135, -0.00109555002, 0.00297483732, 0.00692727277
   2136, -0.00307588046, -0.000184679564, 0.00692727277
   2137, -0.00321494951, -0.000911038136, 0.00692727277
   2138, -0.00203649863, -0.00218860968, 0.00692727277
   2139, -0.000316440681, -0.00343725714, 0.00692727277
   2140, 0.00252299802, -0.0012537532, 0.00692727277
   2141, 0.00131519185, -0.00208483613, 0.00692727277
   2142, 0.000341322564, -0.00258567906, 0.00692727277
   2143, 0.00173294265, -0.000813168241, 0.00692727277
   2144, 0.00230122125, -0.000936484255, 0.00692727277
   2145, 0.00267677754, -0.000736731279, 0.00692727277
   2146, 0.000259082415, 0.00274348469, 0.00692727277
   2147, 0.000575505546, -0.00184310519, 0.00692727277
   2148, -0.000623953005, 0.00253588241, 0.00692727277
   2149, -0.00151159009, 0.0022516863, 0.00692727277
   2150, -0.00250703539, 0.000170841202, 0.00692727277
   2151, -0.00128795544, -0.00168707827, 0.00692727277
   2152, 3.53105897e-05, -0.000303478009, 0.00692727277
   2153, 0.000887008209, -0.000876231119, 0.00692727277
   2154, -0.00198668684, 0.000639819016, 0.00692727277
   2155, -0.0011102251, 0.00210071378, 0.00692727277
   2156, -0.00134775729, 0.00112348737, 0.00692727277
   2157, -0.000908393471, -0.00129355956, 0.00692727277
   2158, -0.00042536456, -0.00114225002, 0.00692727277
   2159, -0.00105097017, 0.000458524708, 0.00692727277
   2160, -0.000610636838, -0.000723266741, 0.00692727277
   2161, -0.000904230517, 0.00162378035, 0.00692727277
   2162, -0.00150804105, 0.000569030643, 0.00692727277
   2163, -0.00135324989, 0.00396553334, 0.00750454515
   2164, -0.00402056053, 0.00101029815, 0.00750454515
   2165, -0.00297016394, -0.00289217359, 0.00750454515
   2166, 0.00397308171, 0.000992201152, 0.00750454515
   2167, 0.00212350115, 0.00354511268, 0.00750454515
   2168, 0.00125990773, -0.00400250824, 0.00750454515
   2169, 0.00314467889, -0.00292053982, 0.00750454515
   2170, 0.00374832447, -0.00209765113, 0.00750454515
   2171, 0.00407549227, -0.0011225834, 0.00750454515
   2172, 0.00415758137, -6.347007e-05, 0.00750454515
   2173, 0.00409602048, 0.000468003738, 0.00750454515
   2174, 0.0037879236, 0.00149980339, 0.00750454515
   2175, 0.00325157144, 0.00243436219, 0.00750454515
   2176, 0.00253152288, 0.00322010578, 0.00750454515
   2177, 0.00169254269, 0.0038232198, 0.00750454515
   2178, 0.000712110021, 0.00416869624, 0.00750454515
   2179, -0.000841098255, 0.00411218498, 0.00750454515
   2180, -0.00274003926, 0.00317171472, 0.00750454515
   2181, -0.00347115193, 0.00247505447, 0.00750454515
   2182, -0.0038807285, 0.00153199071, 0.00750454515
   2183, -0.00414161896, -0.000574599137, 0.00750454515
   2184, -0.00387396198, -0.0015894291, 0.00750454515
   2185, -0.00332311704, -0.0024855223, 0.00750454515
   2186, -0.00166725682, -0.00383298844, 0.00750454515
   2187, -0.000695951923, -0.0042049773, 0.00750454515
   2188, 0.000772389176, -0.00419611763, 0.00750454515
   2189, 0.00175150984, -0.00376692018, 0.00750454515
   2190, 0.00271001016, -0.00320286886, 0.00750454515
   2191, 0.00348136015, -0.00254004332, 0.00750454515
   2192, 0.00394045236, -0.00162366871, 0.00750454515
   2193, 0.00414883252, -0.000596157275, 0.00750454515
   2194, 0.00351941655, 0.000324701221, 0.00750454515
   2195, 0.00204495573, 0.00282008061, 0.00750454515
   2196, -0.00282244734, -0.00216782326, 0.00750454515
   2197, -0.000771973282, 0.00357665564, 0.00750454515
   2198, -0.00333736744, 0.00136134401, 0.00750454515
   2199, 0.000988309504, -0.00351155247, 0.00750454515
   2200, 0.00055882131, -0.00375104626, 0.00750454515
   2201, 0.00291620707, -0.0026352373, 0.00750454515
   2202, 0.00245204382, -0.00265190401, 0.00750454515
   2203, 0.0017081257, 0.00312953047, 0.00750454515
   2204, 0.00320142228, 0.00125144038, 0.00750454515
   2205, 0.00344620412, -0.00153000653, 0.00750454515
   2206, 0.00361137488, -0.000615609053, 0.00750454515
   2207, 0.00354529684, 0.0019814691, 0.00750454515
   2208, 0.00291160378, 0.00284737698, 0.00750454515
   2209, -0.00256794249, -0.00325510488, 0.00750454515
   2210, 0.00121839147, 0.00404197443, 0.00750454515
   2211, -0.00362852868, -0.00204763818, 0.00750454515
   2212, -0.0018484731, 0.00375401648, 0.00750454515
   2213, -0.00411584042, 0.000482196308, 0.00750454515
   2214, -0.00312830484, 0.00284483354, 0.00750454515
   2215, -0.00370325963, 0.00202818681, 0.00750454515
   2216, -0.004051005, -0.00109450193, 0.00750454515
   2217, 0.00223719073, -0.00349180237, 0.00750454515
   2218, -0.00119344355, -0.00404366432, 0.00750454515
   2219, 0.000197806672, 0.00421733828, 0.00750454515
   2220, -0.00212981319, -0.00356914126, 0.00750454515
   2221, -0.000204375261, -0.00430176966, 0.00750454515
   2222, -0.00416028267, -4.47708662e-05, 0.00750454515
   2223, -0.00230909651, 0.00348860933, 0.00750454515
   2224, 0.0011545578, -0.0027996928, 0.00750454515
   2225, 0.00156899134, 0.00246603554, 0.00750454515
   2226, -0.00354788383, 0.000372098963, 0.00750454515
   2227, -0.00166805799, 0.00325595844, 0.00750454515
   2228, -0.00212933798, -0.00286842952, 0.00750454515
   2229, -0.0033795936, -0.00140367029, 0.00750454515
   2230, -0.00245898636, 0.00267885718, 0.00750454515
   2231, -0.00356690213, -0.0010022528, 0.00750454515
   2232, 0.00238249777, 0.00247614784, 0.00750454515
   2233, -0.00320774689, 0.00183734798, 0.00750454515
   2234, 0.00145717501, -0.00326528074, 0.00750454515
   2235, -0.00207244186, 0.0029983623, 0.00750454515
   2236, -0.00130714767, -0.00338947773, 0.00750454515
   2237, 0.000140731077, 0.00371151417, 0.00750454515
   2238, -0.00172811642, -0.0031537991, 0.00750454515
   2239, -0.00362091744, -0.000560386456, 0.00750454515
   2240, -0.00360488612, -0.000101052217, 0.00750454515
   2241, 0.00137465156, 0.00340616587, 0.00750454515
   2242, 0.00296684611, 0.0016876508, 0.00750454515
   2243, -0.00313480734, -0.000599588093, 0.00750454515
   2244, -0.00148921448, 0.00282661617, 0.00750454515
   2245, -0.00301071326, 0.000265140668, 0.00750454515
   2246, -0.00171224575, -0.00250490871, 0.00750454515
   2247, -0.00182060245, 0.00256777345, 0.00750454515
   2248, -0.00135453546, -0.0027738472, 0.00750454515
   2249,  0.001870826,  0.002135196, 0.00750454515
   2250, -0.00282380497, 0.00123672944, 0.00750454515
   2251, 0.00205148384, -0.00223219814, 0.00750454515
   2252, 0.00100395468, 0.00362518849, 0.00750454515
   2253, 0.000152082255, 0.00321342587, 0.00750454515
   2254, 0.000156014619, -0.00336919143, 0.00750454515
   2255, -0.00249434332, -0.00253175036, 0.00750454515
   2256, -0.00122060697, 0.00345152454, 0.00750454515
   2257, -0.00346104824, 0.000866823015, 0.00750454515
   2258, 0.00128685881, 0.00278062373, 0.00750454515
   2259, 0.00161891407, -0.00253219646, 0.00750454515
   2260, -0.000900272455, -0.0035955233, 0.00750454515
   2261, -0.0012980618, -0.00218321267, 0.00750454515
   2262, -0.00134095387, 0.00252467697, 0.00750454515
   2263, 0.00269140187, 0.00209695008, 0.00750454515
   2264, 0.00137190078, 0.00182387407, 0.00750454515
   2265, -0.000564105227, -0.00319002755, 0.00750454515
   2266, 0.00110149034, 0.00216783886, 0.00750454515
   2267, 0.000847242423, -0.00232953043, 0.00750454515
   2268, 0.00174873474, -0.00182702171, 0.00750454515
   2269, 0.00058890396, 0.00371043221, 0.00750454515
   2270, -0.00216334779, 0.00220700284, 0.00750454515
   2271, 0.00243393006, -0.00186947593, 0.00750454515
   2272, -0.000690910092, 0.00305446191, 0.00750454515
   2273, -0.000485159166, -0.00377474586, 0.00750454515
   2274, 0.000876111619, 0.00152649579, 0.00750454515
   2275, -0.00160967186, -0.00190408016, 0.00750454515
   2276, -0.0010938209, -0.00245171133, 0.00750454515
   2277, -0.00175259309, 0.00184043497, 0.00750454515
   2278, -0.000186767342, 0.00261800084, 0.00750454515
   2279, 0.00215857429, 0.00178177387, 0.00750454515
   2280, -0.000160787502, -0.00287347427, 0.00750454515
   2281, 0.000860432629, 0.00251776353, 0.00750454515
   2282, 0.0028853002, -0.00150461926, 0.00750454515
   2283, -0.00282635377, 0.00239056721, 0.00750454515
   2284, 0.000548588345, 0.00327916909, 0.00750454515
   2285, -0.00103522185, 0.00252056657, 0.00750454515
   2286, 0.00283275265, 0.000586048176, 0.00750454515
   2287, 0.00215272489, -0.00154284958, 0.00750454515
   2288, 0.00333265262, -0.00193863653, 0.00750454515
   2289, 0.00355281425, -0.00108770491, 0.00750454515
   2290, 0.00359481131, -0.000145130383, 0.00750454515
   2291, -0.0023359023, -0.00183082477, 0.00750454515
   2292, 0.00306482054, -0.000248516328, 0.00750454515
   2293, 0.000667472021, 0.00288068084, 0.00750454515
   2294, 0.00104305637, 0.00307724578, 0.00750454515
   2295, -0.00083199935, -0.00185014843, 0.00750454515
   2296, -0.000604834524, 0.00196997123, 0.00750454515
   2297, -0.00259547913, 0.00179638213, 0.00750454515
   2298, 3.88241388e-05, -0.00210830895, 0.00750454515
   2299, 0.00164725259, 0.00148151908, 0.00750454515
   2300, 0.00242095604, 0.00140251254, 0.00750454515
   2301, 0.000627421017, 0.00191148254, 0.00750454515
   2302, -0.0013811196,  -0.00135007, 0.00750454515
   2303, 0.00275410013, -0.00101068977, 0.00750454515
   2304, -0.00187416759, -0.00152094779, 0.00750454515
   2305, -0.00242865551, 0.00105836208, 0.00750454515
   2306, -6.0290673e-05, 0.0021352896, 0.00750454515
   2307, 0.00257243309, -0.000391532725, 0.00750454515
   2308, -0.00263268594, -0.00146373489, 0.00750454515
   2309, 0.00191721506, -0.00118202239, 0.00750454515
   2310, -0.000580140157, -0.00244367123, 0.00750454515
   2311, -0.00201350613, 0.00129957171, 0.00750454515
   2312, 0.00106725481, -0.00164589926, 0.00750454515
   2313, 0.00114658801, 0.00117507228, 0.00750454515
   2314, 0.00190618366, 0.00112789962, 0.00750454515
   2315, 0.000366628345, 0.00123818335, 0.00750454515
   2316, 0.000416493887, 0.00231370912, 0.00750454515
   2317, -0.00103527016, -0.000848668802, 0.00750454515
   2318, 0.00296931528, 0.000166841462, 0.00750454515
   2319, 0.00151707651, -0.00142398698, 0.00750454515
   2320, -0.000801510876, 0.00128439965, 0.00750454515
   2321, -0.000209167163, -0.00161284197, 0.00750454515
   2322, -0.00296090939, -0.00114833191, 0.00750454515
   2323, 0.0024549847, -1.4813204e-05, 0.00750454515
   2324, 0.000914154225, -0.00122501259, 0.00750454515
   2325, 0.00134233665, -0.00103631616, 0.00750454515
   2326, 0.00143360544, 0.000859176042, 0.00750454515
   2327, 0.00212829164, 0.000752113643, 0.00750454515
   2328, -0.00294047943, 0.000742614502, 0.00750454515
   2329, 0.00230799569, 0.000370419933, 0.00750454515
   2330, 0.00311195711, -0.000649643189, 0.00750454515
   2331, 0.00213276432, -0.000587722694, 0.00750454515
   2332, -0.000944585889, -0.00296284794, 0.00750454515
   2333, 0.000141423341, 0.00168791867, 0.00750454515
   2334, 0.000622865162, 0.000741376076, 0.00750454515
   2335, -0.000340482773, 0.00149200519, 0.00750454515
   2336, 0.000361654878, -0.0012826228, 0.00750454515
   2337, -0.0012926287, 0.00166836032, 0.00750454515
   2338, 0.000613496988, -0.000732398708, 0.00750454515
   2339, -0.000151188229, 0.0010424651, 0.00750454515
   2340, 0.00198280136, -0.000219871872, 0.00750454515
   2341, -0.000633230025, 0.000901054882, 0.00750454515
   2342, -0.00155415211, 5.21985748e-05, 0.00750454515
   2343, -0.00214766851, -0.00102410931, 0.00750454515
   2344, -0.00245067058, 0.000644518586, 0.00750454515
   2345, 0.00155171473, -0.000442923862, 0.00750454515
   2346, 0.00107027742, 0.000601972977, 0.00750454515
   2347, -0.00152497459, -0.000917053316, 0.00750454515
   2348, -0.0010117389, 0.000809108606, 0.00750454515
   2349, -0.00268690172, -0.000761706033, 0.00750454515
   2350, -0.00312115229, -0.00178152137, 0.00750454515
   2351, -5.57922613e-06, -0.000881481101, 0.00750454515
   2352, -0.00207330636, -0.000427376159, 0.00750454515
   2353, 0.00182075496, 0.000146054736, 0.00750454515
   2354, -0.000550453085, 0.000462105003, 0.00750454515
   2355, 0.00117953774, -0.000669663481, 0.00750454515
   2356, -0.0020269223, 9.98058604e-05, 0.00750454515
   2357, -0.000749598257, -0.000406963052, 0.00750454515
   2358, 0.00116893614, 0.000262420217, 0.00750454515
   2359, 0.000619583181, 5.30813522e-05, 0.00750454515
   2360, -0.00107353542, 1.94925287e-05, 0.00750454515
   2361, -1.23417567e-05, 0.000577200612, 0.00750454515
   2362, 3.34280012e-05, 8.49908902e-05, 0.00750454515
   2363, 0.00135823153, -8.93766119e-05, 0.00750454515
   2364, 0.000321388652, -0.000485395518, 0.00750454515
   2365, -0.000523946073, -4.92745166e-05, 0.00750454515
   2366, -0.00157230778, -0.000435936701, 0.00750454515
   2367, 0.000943185936, -0.000345294422, 0.00750454515
   2368, 0.00164351484, 0.000501646835, 0.00750454515
   2369, 0.00264639547, 0.000999862212, 0.00750454515
   2370, -0.0011104648, -0.000411461981, 0.00750454515
   2371, -0.00257178117, -0.000312425283, 0.00750454515
   2372, -0.000269917189, -0.000500896305, 0.00750454515
   2373, -0.000318563427, 0.00419643195, 0.00750454515
   2374, 0.000291611359, -0.00431829831, 0.00750454515
   2375, 0.00338417524, 0.000793792715, 0.00750454515
   2376, -0.00030827726, 0.00366496085, 0.00750454515
   2377, -0.00315928599, 0.00223519979, 0.00750454515
   2378, 0.000259194087, -0.00397536671, 0.00750454515
   2379, 0.00193770218, -0.00298756175, 0.00750454515
   2380, 0.00307746138, -0.00106590847, 0.00750454515
   2381, 0.00298592844, -0.00185081188, 0.00750454515
   2382, 0.00273260451, -0.00215353072, 0.00750454515
   2383, 0.00311360625, -0.00231958134, 0.00750454515
   2384, 0.00066264387, -0.00305879372, 0.00750454515
   2385, -7.04654376e-05, -0.00386221963, 0.00750454515
   2386, 0.000867682858, 0.0033219764, 0.00750454515
   2387, -0.000261262147, 0.0031392735, 0.00750454515
   2388, -0.00109555002, 0.00297483732, 0.00750454515
   2389, -0.00307588046, -0.000184679564, 0.00750454515
   2390, -0.00321494951, -0.000911038136, 0.00750454515
   2391, -0.00203649863, -0.00218860968, 0.00750454515
   2392, -0.000316440681, -0.00343725714, 0.00750454515
   2393, 0.00252299802, -0.0012537532, 0.00750454515
   2394, 0.00131519185, -0.00208483613, 0.00750454515
   2395, 0.000341322564, -0.00258567906, 0.00750454515
   2396, 0.00173294265, -0.000813168241, 0.00750454515
   2397, 0.00230122125, -0.000936484255, 0.00750454515
   2398, 0.00267677754, -0.000736731279, 0.00750454515
   2399, 0.000259082415, 0.00274348469, 0.00750454515
   2400, 0.000575505546, -0.00184310519, 0.00750454515
   2401, -0.000623953005, 0.00253588241, 0.00750454515
   2402, -0.00151159009, 0.0022516863, 0.00750454515
   2403, -0.00250703539, 0.000170841202, 0.00750454515
   2404, -0.00128795544, -0.00168707827, 0.00750454515
   2405, 3.53105897e-05, -0.000303478009, 0.00750454515
   2406, 0.000887008209, -0.000876231119, 0.00750454515
   2407, -0.00198668684, 0.000639819016, 0.00750454515
   2408, -0.0011102251, 0.00210071378, 0.00750454515
   2409, -0.00134775729, 0.00112348737, 0.00750454515
   2410, -0.000908393471, -0.00129355956, 0.00750454515
   2411, -0.00042536456, -0.00114225002, 0.00750454515
   2412, -0.00105097017, 0.000458524708, 0.00750454515
   2413, -0.000610636838, -0.000723266741, 0.00750454515
   2414, -0.000904230517, 0.00162378035, 0.00750454515
   2415, -0.00150804105, 0.000569030643, 0.00750454515
   2416, -0.00135324989, 0.00396553334,  0.008081818
   2417, -0.00402056053, 0.00101029815,  0.008081818
   2418, -0.00297016394, -0.00289217359,  0.008081818
   2419, 0.00397308171, 0.000992201152,  0.008081818
   2420, 0.00212350115, 0.00354511268,  0.008081818
   2421, 0.00125990773, -0.00400250824,  0.008081818
   2422, 0.00314467889, -0.00292053982,  0.008081818
   2423, 0.00374832447, -0.00209765113,  0.008081818
   2424, 0.00407549227, -0.0011225834,  0.008081818
   2425, 0.00415758137, -6.347007e-05,  0.008081818
   2426, 0.00409602048, 0.000468003738,  0.008081818
   2427, 0.0037879236, 0.00149980339,  0.008081818
   2428, 0.00325157144, 0.00243436219,  0.008081818
   2429, 0.00253152288, 0.00322010578,  0.008081818
   2430, 0.00169254269, 0.0038232198,  0.008081818
   2431, 0.000712110021, 0.00416869624,  0.008081818
   2432, -0.000841098255, 0.00411218498,  0.008081818
   2433, -0.00274003926, 0.00317171472,  0.008081818
   2434, -0.00347115193, 0.00247505447,  0.008081818
   2435, -0.0038807285, 0.00153199071,  0.008081818
   2436, -0.00414161896, -0.000574599137,  0.008081818
   2437, -0.00387396198, -0.0015894291,  0.008081818
   2438, -0.00332311704, -0.0024855223,  0.008081818
   2439, -0.00166725682, -0.00383298844,  0.008081818
   2440, -0.000695951923, -0.0042049773,  0.008081818
   2441, 0.000772389176, -0.00419611763,  0.008081818
   2442, 0.00175150984, -0.00376692018,  0.008081818
   2443, 0.00271001016, -0.00320286886,  0.008081818
   2444, 0.00348136015, -0.00254004332,  0.008081818
   2445, 0.00394045236, -0.00162366871,  0.008081818
   2446, 0.00414883252, -0.000596157275,  0.008081818
   2447, 0.00351941655, 0.000324701221,  0.008081818
   2448, 0.00204495573, 0.00282008061,  0.008081818
   2449, -0.00282244734, -0.00216782326,  0.008081818
   2450, -0.000771973282, 0.00357665564,  0.008081818
   2451, -0.00333736744, 0.00136134401,  0.008081818
   2452, 0.000988309504, -0.00351155247,  0.008081818
   2453, 0.00055882131, -0.00375104626,  0.008081818
   2454, 0.00291620707, -0.0026352373,  0.008081818
   2455, 0.00245204382, -0.00265190401,  0.008081818
   2456, 0.0017081257, 0.00312953047,  0.008081818
   2457, 0.00320142228, 0.00125144038,  0.008081818
   2458, 0.00344620412, -0.00153000653,  0.008081818
   2459, 0.00361137488, -0.000615609053,  0.008081818
   2460, 0.00354529684, 0.0019814691,  0.008081818
   2461, 0.00291160378, 0.00284737698,  0.008081818
   2462, -0.00256794249, -0.00325510488,  0.008081818
   2463, 0.00121839147, 0.00404197443,  0.008081818
   2464, -0.00362852868, -0.00204763818,  0.008081818
   2465, -0.0018484731, 0.00375401648,  0.008081818
   2466, -0.00411584042, 0.000482196308,  0.008081818
   2467, -0.00312830484, 0.00284483354,  0.008081818
   2468, -0.00370325963, 0.00202818681,  0.008081818
   2469, -0.004051005, -0.00109450193,  0.008081818
   2470, 0.00223719073, -0.00349180237,  0.008081818
   2471, -0.00119344355, -0.00404366432,  0.008081818
   2472, 0.000197806672, 0.00421733828,  0.008081818
   2473, -0.00212981319, -0.00356914126,  0.008081818
   2474, -0.000204375261, -0.00430176966,  0.008081818
   2475, -0.00416028267, -4.47708662e-05,  0.008081818
   2476, -0.00230909651, 0.00348860933,  0.008081818
   2477, 0.0011545578, -0.0027996928,  0.008081818
   2478, 0.00156899134, 0.00246603554,  0.008081818
   2479, -0.00354788383, 0.000372098963,  0.008081818
   2480, -0.00166805799, 0.00325595844,  0.008081818
   2481, -0.00212933798, -0.00286842952,  0.008081818
   2482, -0.0033795936, -0.00140367029,  0.008081818
   2483, -0.00245898636, 0.00267885718,  0.008081818
   2484, -0.00356690213, -0.0010022528,  0.008081818
   2485, 0.00238249777, 0.00247614784,  0.008081818
   2486, -0.00320774689, 0.00183734798,  0.008081818
   2487, 0.00145717501, -0.00326528074,  0.008081818
   2488, -0.00207244186, 0.0029983623,  0.008081818
   2489, -0.00130714767, -0.00338947773,  0.008081818
   2490, 0.000140731077, 0.00371151417,  0.008081818
   2491, -0.00172811642, -0.0031537991,  0.008081818
   2492, -0.00362091744, -0.000560386456,  0.008081818
   2493, -0.00360488612, -0.000101052217,  0.008081818
   2494, 0.00137465156, 0.00340616587,  0.008081818
   2495, 0.00296684611, 0.0016876508,  0.008081818
   2496, -0.00313480734, -0.000599588093,  0.008081818
   2497, -0.00148921448, 0.00282661617,  0.008081818
   2498, -0.00301071326, 0.000265140668,  0.008081818
   2499, -0.00171224575, -0.00250490871,  0.008081818
   2500, -0.00182060245, 0.00256777345,  0.008081818
   2501, -0.00135453546, -0.0027738472,  0.008081818
   2502,  0.001870826,  0.002135196,  0.008081818
   2503, -0.00282380497, 0.00123672944,  0.008081818
   2504, 0.00205148384, -0.00223219814,  0.008081818
   2505, 0.00100395468, 0.00362518849,  0.008081818
   2506, 0.000152082255, 0.00321342587,  0.008081818
   2507, 0.000156014619, -0.00336919143,  0.008081818
   2508, -0.00249434332, -0.00253175036,  0.008081818
   2509, -0.00122060697, 0.00345152454,  0.008081818
   2510, -0.00346104824, 0.000866823015,  0.008081818
   2511, 0.00128685881, 0.00278062373,  0.008081818
   2512, 0.00161891407, -0.00253219646,  0.008081818
   2513, -0.000900272455, -0.0035955233,  0.008081818
   2514, -0.0012980618, -0.00218321267,  0.008081818
   2515, -0.00134095387, 0.00252467697,  0.008081818
   2516, 0.00269140187, 0.00209695008,  0.008081818
   2517, 0.00137190078, 0.00182387407,  0.008081818
   2518, -0.000564105227, -0.00319002755,  0.008081818
   2519, 0.00110149034, 0.00216783886,  0.008081818
   2520, 0.000847242423, -0.00232953043,  0.008081818
   2521, 0.00174873474, -0.00182702171,  0.008081818
   2522, 0.00058890396, 0.00371043221,  0.008081818
   2523, -0.00216334779, 0.00220700284,  0.008081818
   2524, 0.00243393006, -0.00186947593,  0.008081818
   2525, -0.000690910092, 0.00305446191,  0.008081818
   2526, -0.000485159166, -0.00377474586,  0.008081818
   2527, 0.000876111619, 0.00152649579,  0.008081818
   2528, -0.00160967186, -0.00190408016,  0.008081818
   2529, -0.0010938209, -0.00245171133,  0.008081818
   2530, -0.00175259309, 0.00184043497,  0.008081818
   2531, -0.000186767342, 0.00261800084,  0.008081818
   2532, 0.00215857429, 0.00178177387,  0.008081818
   2533, -0.000160787502, -0.00287347427,  0.008081818
   2534, 0.000860432629, 0.00251776353,  0.008081818
   2535, 0.0028853002, -0.00150461926,  0.008081818
   2536, -0.00282635377, 0.00239056721,  0.008081818
   2537, 0.000548588345, 0.00327916909,  0.008081818
   2538, -0.00103522185, 0.00252056657,  0.008081818
   2539, 0.00283275265, 0.000586048176,  0.008081818
   2540, 0.00215272489, -0.00154284958,  0.008081818
   2541, 0.00333265262, -0.00193863653,  0.008081818
   2542, 0.00355281425, -0.00108770491,  0.008081818
   2543, 0.00359481131, -0.000145130383,  0.008081818
   2544, -0.0023359023, -0.00183082477,  0.008081818
   2545, 0.00306482054, -0.000248516328,  0.008081818
   2546, 0.000667472021, 0.00288068084,  0.008081818
   2547, 0.00104305637, 0.00307724578,  0.008081818
   2548, -0.00083199935, -0.00185014843,  0.008081818
   2549, -0.000604834524, 0.00196997123,  0.008081818
   2550, -0.00259547913, 0.00179638213,  0.008081818
   2551, 3.88241388e-05, -0.00210830895,  0.008081818
   2552, 0.00164725259, 0.00148151908,  0.008081818
   2553, 0.00242095604, 0.00140251254,  0.008081818
   2554, 0.000627421017, 0.00191148254,  0.008081818
   2555, -0.0013811196,  -0.00135007,  0.008081818
   2556, 0.00275410013, -0.00101068977,  0.008081818
   2557, -0.00187416759, -0.00152094779,  0.008081818
   2558, -0.00242865551, 0.00105836208,  0.008081818
   2559, -6.0290673e-05, 0.0021352896,  0.008081818
   2560, 0.00257243309, -0.000391532725,  0.008081818
   2561, -0.00263268594, -0.00146373489,  0.008081818
   2562, 0.00191721506, -0.00118202239,  0.008081818
   2563, -0.000580140157, -0.00244367123,  0.008081818
   2564, -0.00201350613, 0.00129957171,  0.008081818
   2565, 0.00106725481, -0.00164589926,  0.008081818
   2566, 0.00114658801, 0.00117507228,  0.008081818
   2567, 0.00190618366, 0.00112789962,  0.008081818
   2568, 0.000366628345, 0.00123818335,  0.008081818
   2569, 0.000416493887, 0.00231370912,  0.008081818
   2570, -0.00103527016, -0.000848668802,  0.008081818
   2571, 0.00296931528, 0.000166841462,  0.008081818
   2572, 0.00151707651, -0.00142398698,  0.008081818
   2573, -0.000801510876, 0.00128439965,  0.008081818
   2574, -0.000209167163, -0.00161284197,  0.008081818
   2575, -0.00296090939, -0.00114833191,  0.008081818
   2576, 0.0024549847, -1.4813204e-05,  0.008081818
   2577, 0.000914154225, -0.00122501259,  0.008081818
   2578, 0.00134233665, -0.00103631616,  0.008081818
   2579, 0.00143360544, 0.000859176042,  0.008081818
   2580, 0.00212829164, 0.000752113643,  0.008081818
   2581, -0.00294047943, 0.000742614502,  0.008081818
   2582, 0.00230799569, 0.000370419933,  0.008081818
   2583, 0.00311195711, -0.000649643189,  0.008081818
   2584, 0.00213276432, -0.000587722694,  0.008081818
   2585, -0.000944585889, -0.00296284794,  0.008081818
   2586, 0.000141423341, 0.00168791867,  0.008081818
   2587, 0.000622865162, 0.000741376076,  0.008081818
   2588, -0.000340482773, 0.00149200519,  0.008081818
   2589, 0.000361654878, -0.0012826228,  0.008081818
   2590, -0.0012926287, 0.00166836032,  0.008081818
   2591, 0.000613496988, -0.000732398708,  0.008081818
   2592, -0.000151188229, 0.0010424651,  0.008081818
   2593, 0.00198280136, -0.000219871872,  0.008081818
   2594, -0.000633230025, 0.000901054882,  0.008081818
   2595, -0.00155415211, 5.21985748e-05,  0.008081818
   2596, -0.00214766851, -0.00102410931,  0.008081818
   2597, -0.00245067058, 0.000644518586,  0.008081818
   2598, 0.00155171473, -0.000442923862,  0.008081818
   2599, 0.00107027742, 0.000601972977,  0.008081818
   2600, -0.00152497459, -0.000917053316,  0.008081818
   2601, -0.0010117389, 0.000809108606,  0.008081818
   2602, -0.00268690172, -0.000761706033,  0.008081818
   2603, -0.00312115229, -0.00178152137,  0.008081818
   2604, -5.57922613e-06, -0.000881481101,  0.008081818
   2605, -0.00207330636, -0.000427376159,  0.008081818
   2606, 0.00182075496, 0.000146054736,  0.008081818
   2607, -0.000550453085, 0.000462105003,  0.008081818
   2608, 0.00117953774, -0.000669663481,  0.008081818
   2609, -0.0020269223, 9.98058604e-05,  0.008081818
   2610, -0.000749598257, -0.000406963052,  0.008081818
   2611, 0.00116893614, 0.000262420217,  0.008081818
   2612, 0.000619583181, 5.30813522e-05,  0.008081818
   2613, -0.00107353542, 1.94925287e-05,  0.008081818
   2614, -1.23417567e-05, 0.000577200612,  0.008081818
   2615, 3.34280012e-05, 8.49908902e-05,  0.008081818
   2616, 0.00135823153, -8.93766119e-05,  0.008081818
   2617, 0.000321388652, -0.000485395518,  0.008081818
   2618, -0.000523946073, -4.92745166e-05,  0.008081818
   2619, -0.00157230778, -0.000435936701,  0.008081818
   2620, 0.000943185936, -0.000345294422,  0.008081818
   2621, 0.00164351484, 0.000501646835,  0.008081818
   2622, 0.00264639547, 0.000999862212,  0.008081818
   2623, -0.0011104648, -0.000411461981,  0.008081818
   2624, -0.00257178117, -0.000312425283,  0.008081818
   2625, -0.000269917189, -0.000500896305,  0.008081818
   2626, -0.000318563427, 0.00419643195,  0.008081818
   2627, 0.000291611359, -0.00431829831,  0.008081818
   2628, 0.00338417524, 0.000793792715,  0.008081818
   2629, -0.00030827726, 0.00366496085,  0.008081818
   2630, -0.00315928599, 0.00223519979,  0.008081818
   2631, 0.000259194087, -0.00397536671,  0.008081818
   2632, 0.00193770218, -0.00298756175,  0.008081818
   2633, 0.00307746138, -0.00106590847,  0.008081818
   2634, 0.00298592844, -0.00185081188,  0.008081818
   2635, 0.00273260451, -0.00215353072,  0.008081818
   2636, 0.00311360625, -0.00231958134,  0.008081818
   2637, 0.00066264387, -0.00305879372,  0.008081818
   2638, -7.04654376e-05, -0.00386221963,  0.008081818
   2639, 0.000867682858, 0.0033219764,  0.008081818
   2640, -0.000261262147, 0.0031392735,  0.008081818
   2641, -0.00109555002, 0.00297483732,  0.008081818
   2642, -0.00307588046, -0.000184679564,  0.008081818
   2643, -0.00321494951, -0.000911038136,  0.008081818
   2644, -0.00203649863, -0.00218860968,  0.008081818
   2645, -0.000316440681, -0.00343725714,  0.008081818
   2646, 0.00252299802, -0.0012537532,  0.008081818
   2647, 0.00131519185, -0.00208483613,  0.008081818
   2648, 0.000341322564, -0.00258567906,  0.008081818
   2649, 0.00173294265, -0.000813168241,  0.008081818
   2650, 0.00230122125, -0.000936484255,  0.008081818
   2651, 0.00267677754, -0.000736731279,  0.008081818
   2652, 0.000259082415, 0.00274348469,  0.008081818
   2653, 0.000575505546, -0.00184310519,  0.008081818
   2654, -0.000623953005, 0.00253588241,  0.008081818
   2655, -0.00151159009, 0.0022516863,  0.008081818
   2656, -0.00250703539, 0.000170841202,  0.008081818
   2657, -0.00128795544, -0.00168707827,  0.008081818
   2658, 3.53105897e-05, -0.000303478009,  0.008081818
   2659, 0.000887008209, -0.000876231119,  0.008081818
   2660, -0.00198668684, 0.000639819016,  0.008081818
   2661, -0.0011102251, 0.00210071378,  0.008081818
   2662, -0.00134775729, 0.00112348737,  0.008081818
   2663, -0.000908393471, -0.00129355956,  0.008081818
   2664, -0.00042536456, -0.00114225002,  0.008081818
   2665, -0.00105097017, 0.000458524708,  0.008081818
   2666, -0.000610636838, -0.000723266741,  0.008081818
   2667, -0.000904230517, 0.00162378035,  0.008081818
   2668, -0.00150804105, 0.000569030643,  0.008081818
   2669, -0.00135324989, 0.00396553334, 0.00865909085
   2670, -0.00402056053, 0.00101029815, 0.00865909085
   2671, -0.00297016394, -0.00289217359, 0.00865909085
   2672, 0.00397308171, 0.000992201152, 0.00865909085
   2673, 0.00212350115, 0.00354511268, 0.00865909085
   2674, 0.00125990773, -0.00400250824, 0.00865909085
   2675, 0.00314467889, -0.00292053982, 0.00865909085
   2676, 0.00374832447, -0.00209765113, 0.00865909085
   2677, 0.00407549227, -0.0011225834, 0.00865909085
   2678, 0.00415758137, -6.347007e-05, 0.00865909085
   2679, 0.00409602048, 0.000468003738, 0.00865909085
   2680, 0.0037879236, 0.00149980339, 0.00865909085
   2681, 0.00325157144, 0.00243436219, 0.00865909085
   2682, 0.00253152288, 0.00322010578, 0.00865909085
   2683, 0.00169254269, 0.0038232198, 0.00865909085
   2684, 0.000712110021, 0.00416869624, 0.00865909085
   2685, -0.000841098255, 0.00411218498, 0.00865909085
   2686, -0.00274003926, 0.00317171472, 0.00865909085
   2687, -0.00347115193, 0.00247505447, 0.00865909085
   2688, -0.0038807285, 0.00153199071, 0.00865909085
   2689, -0.00414161896, -0.000574599137, 0.00865909085
   2690, -0.00387396198, -0.0015894291, 0.00865909085
   2691, -0.00332311704, -0.0024855223, 0.00865909085
   2692, -0.00166725682, -0.00383298844, 0.00865909085
   2693, -0.000695951923, -0.0042049773, 0.00865909085
   2694, 0.000772389176, -0.00419611763, 0.00865909085
   2695, 0.00175150984, -0.00376692018, 0.00865909085
   2696, 0.00271001016, -0.00320286886, 0.00865909085
   2697, 0.00348136015, -0.00254004332, 0.00865909085
   2698, 0.00394045236, -0.00162366871, 0.00865909085
   2699, 0.00414883252, -0.000596157275, 0.00865909085
   2700, 0.00351941655, 0.000324701221, 0.00865909085
   2701, 0.00204495573, 0.00282008061, 0.00865909085
   2702, -0.00282244734, -0.00216782326, 0.00865909085
   2703, -0.000771973282, 0.00357665564, 0.00865909085
   2704, -0.00333736744, 0.00136134401, 0.00865909085
   2705, 0.000988309504, -0.00351155247, 0.00865909085
   2706, 0.00055882131, -0.00375104626, 0.00865909085
   2707, 0.00291620707, -0.0026352373, 0.00865909085
   2708, 0.00245204382, -0.00265190401, 0.00865909085
   2709, 0.0017081257, 0.00312953047, 0.00865909085
   2710, 0.00320142228, 0.00125144038, 0.00865909085
   2711, 0.00344620412, -0.00153000653, 0.00865909085
   2712, 0.00361137488, -0.000615609053, 0.00865909085
   2713, 0.00354529684, 0.0019814691, 0.00865909085
   2714, 0.00291160378, 0.00284737698, 0.00865909085
   2715, -0.00256794249, -0.00325510488, 0.00865909085
   2716, 0.00121839147, 0.00404197443, 0.00865909085
   2717, -0.00362852868, -0.00204763818, 0.00865909085
   2718, -0.0018484731, 0.00375401648, 0.00865909085
   2719, -0.00411584042, 0.000482196308, 0.00865909085
   2720, -0.00312830484, 0.00284483354, 0.00865909085
   2721, -0.00370325963, 0.00202818681, 0.00865909085
   2722, -0.004051005, -0.00109450193, 0.00865909085
   2723, 0.00223719073, -0.00349180237, 0.00865909085
   2724, -0.00119344355, -0.00404366432, 0.00865909085
   2725, 0.000197806672, 0.00421733828, 0.00865909085
   2726, -0.00212981319, -0.00356914126, 0.00865909085
   2727, -0.000204375261, -0.00430176966, 0.00865909085
   2728, -0.00416028267, -4.47708662e-05, 0.00865909085
   2729, -0.00230909651, 0.00348860933, 0.00865909085
   2730, 0.0011545578, -0.0027996928, 0.00865909085
   2731, 0.00156899134, 0.00246603554, 0.00865909085
   2732, -0.00354788383, 0.000372098963, 0.00865909085
   2733, -0.00166805799, 0.00325595844, 0.00865909085
   2734, -0.00212933798, -0.00286842952, 0.00865909085
   2735, -0.0033795936, -0.00140367029, 0.00865909085
   2736, -0.00245898636, 0.00267885718, 0.00865909085
   2737, -0.00356690213, -0.0010022528, 0.00865909085
   2738, 0.00238249777, 0.00247614784, 0.00865909085
   2739, -0.00320774689, 0.00183734798, 0.00865909085
   2740, 0.00145717501, -0.00326528074, 0.00865909085
   2741, -0.00207244186, 0.0029983623, 0.00865909085
   2742, -0.00130714767, -0.00338947773, 0.00865909085
   2743, 0.000140731077, 0.00371151417, 0.00865909085
   2744, -0.00172811642, -0.0031537991, 0.00865909085
   2745, -0.00362091744, -0.000560386456, 0.00865909085
   2746, -0.00360488612, -0.000101052217, 0.00865909085
   2747, 0.00137465156, 0.00340616587, 0.00865909085
   2748, 0.00296684611, 0.0016876508, 0.00865909085
   2749, -0.00313480734, -0.000599588093, 0.00865909085
   2750, -0.00148921448, 0.00282661617, 0.00865909085
   2751, -0.00301071326, 0.000265140668, 0.00865909085
   2752, -0.00171224575, -0.00250490871, 0.00865909085
   2753, -0.00182060245, 0.00256777345, 0.00865909085
   2754, -0.00135453546, -0.0027738472, 0.00865909085
   2755,  0.001870826,  0.002135196, 0.00865909085
   2756, -0.00282380497, 0.00123672944, 0.00865909085
   2757, 0.00205148384, -0.00223219814, 0.00865909085
   2758, 0.00100395468, 0.00362518849, 0.00865909085
   2759, 0.000152082255, 0.00321342587, 0.00865909085
   2760, 0.000156014619, -0.00336919143, 0.00865909085
   2761, -0.00249434332, -0.00253175036, 0.00865909085
   2762, -0.00122060697, 0.00345152454, 0.00865909085
   2763, -0.00346104824, 0.000866823015, 0.00865909085
   2764, 0.00128685881, 0.00278062373, 0.00865909085
   2765, 0.00161891407, -0.00253219646, 0.00865909085
   2766, -0.000900272455, -0.0035955233, 0.00865909085
   2767, -0.0012980618, -0.00218321267, 0.00865909085
   2768, -0.00134095387, 0.00252467697, 0.00865909085
   2769, 0.00269140187, 0.00209695008, 0.00865909085
   2770, 0.00137190078, 0.00182387407, 0.00865909085
   2771, -0.000564105227, -0.00319002755, 0.00865909085
   2772, 0.00110149034, 0.00216783886, 0.00865909085
   2773, 0.000847242423, -0.00232953043, 0.00865909085
   2774, 0.00174873474, -0.00182702171, 0.00865909085
   2775, 0.00058890396, 0.00371043221, 0.00865909085
   2776, -0.00216334779, 0.00220700284, 0.00865909085
   2777, 0.00243393006, -0.00186947593, 0.00865909085
   2778, -0.000690910092, 0.00305446191, 0.00865909085
   2779, -0.000485159166, -0.00377474586, 0.00865909085
   2780, 0.000876111619, 0.00152649579, 0.00865909085
   2781, -0.00160967186, -0.00190408016, 0.00865909085
   2782, -0.0010938209, -0.00245171133, 0.00865909085
   2783, -0.00175259309, 0.00184043497, 0.00865909085
   2784, -0.000186767342, 0.00261800084, 0.00865909085
   2785, 0.00215857429, 0.00178177387, 0.00865909085
   2786, -0.000160787502, -0.00287347427, 0.00865909085
   2787, 0.000860432629, 0.00251776353, 0.00865909085
   2788, 0.0028853002, -0.00150461926, 0.00865909085
   2789, -0.00282635377, 0.00239056721, 0.00865909085
   2790, 0.000548588345, 0.00327916909, 0.00865909085
   2791, -0.00103522185, 0.00252056657, 0.00865909085
   2792, 0.00283275265, 0.000586048176, 0.00865909085
   2793, 0.00215272489, -0.00154284958, 0.00865909085
   2794, 0.00333265262, -0.00193863653, 0.00865909085
   2795, 0.00355281425, -0.00108770491, 0.00865909085
   2796, 0.00359481131, -0.000145130383, 0.00865909085
   2797, -0.0023359023, -0.00183082477, 0.00865909085
   2798, 0.00306482054, -0.000248516328, 0.00865909085
   2799, 0.000667472021, 0.00288068084, 0.00865909085
   2800, 0.00104305637, 0.00307724578, 0.00865909085
   2801, -0.00083199935, -0.00185014843, 0.00865909085
   2802, -0.000604834524, 0.00196997123, 0.00865909085
   2803, -0.00259547913, 0.00179638213, 0.00865909085
   2804, 3.88241388e-05, -0.00210830895, 0.00865909085
   2805, 0.00164725259, 0.00148151908, 0.00865909085
   2806, 0.00242095604, 0.00140251254, 0.00865909085
   2807, 0.000627421017, 0.00191148254, 0.00865909085
   2808, -0.0013811196,  -0.00135007, 0.00865909085
   2809, 0.00275410013, -0.00101068977, 0.00865909085
   2810, -0.00187416759, -0.00152094779, 0.00865909085
   2811, -0.00242865551, 0.00105836208, 0.00865909085
   2812, -6.0290673e-05, 0.0021352896, 0.00865909085
   2813, 0.00257243309, -0.000391532725, 0.00865909085
   2814, -0.00263268594, -0.00146373489, 0.00865909085
   2815, 0.00191721506, -0.00118202239, 0.00865909085
   2816, -0.000580140157, -0.00244367123, 0.00865909085
   2817, -0.00201350613, 0.00129957171, 0.00865909085
   2818, 0.00106725481, -0.00164589926, 0.00865909085
   2819, 0.00114658801, 0.00117507228, 0.00865909085
   2820, 0.00190618366, 0.00112789962, 0.00865909085
   2821, 0.000366628345, 0.00123818335, 0.00865909085
   2822, 0.000416493887, 0.00231370912, 0.00865909085
   2823, -0.00103527016, -0.000848668802, 0.00865909085
   2824, 0.00296931528, 0.000166841462, 0.00865909085
   2825, 0.00151707651, -0.00142398698, 0.00865909085
   2826, -0.000801510876, 0.00128439965, 0.00865909085
   2827, -0.000209167163, -0.00161284197, 0.00865909085
   2828, -0.00296090939, -0.00114833191, 0.00865909085
   2829, 0.0024549847, -1.4813204e-05, 0.00865909085
   2830, 0.000914154225, -0.00122501259, 0.00865909085
   2831, 0.00134233665, -0.00103631616, 0.00865909085
   2832, 0.00143360544, 0.000859176042, 0.00865909085
   2833, 0.00212829164, 0.000752113643, 0.00865909085
   2834, -0.00294047943, 0.000742614502, 0.00865909085
   2835, 0.00230799569, 0.000370419933, 0.00865909085
   2836, 0.00311195711, -0.000649643189, 0.00865909085
   2837, 0.00213276432, -0.000587722694, 0.00865909085
   2838, -0.000944585889, -0.00296284794, 0.00865909085
   2839, 0.000141423341, 0.00168791867, 0.00865909085
   2840, 0.000622865162, 0.000741376076, 0.00865909085
   2841, -0.000340482773, 0.00149200519, 0.00865909085
   2842, 0.000361654878, -0.0012826228, 0.00865909085
   2843, -0.0012926287, 0.00166836032, 0.00865909085
   2844, 0.000613496988, -0.000732398708, 0.00865909085
   2845, -0.000151188229, 0.0010424651, 0.00865909085
   2846, 0.00198280136, -0.000219871872, 0.00865909085
   2847, -0.000633230025, 0.000901054882, 0.00865909085
   2848, -0.00155415211, 5.21985748e-05, 0.00865909085
   2849, -0.00214766851, -0.00102410931, 0.00865909085
   2850, -0.00245067058, 0.000644518586, 0.00865909085
   2851, 0.00155171473, -0.000442923862, 0.00865909085
   2852, 0.00107027742, 0.000601972977, 0.00865909085
   2853, -0.00152497459, -0.000917053316, 0.00865909085
   2854, -0.0010117389, 0.000809108606, 0.00865909085
   2855, -0.00268690172, -0.000761706033, 0.00865909085
   2856, -0.00312115229, -0.00178152137, 0.00865909085
   2857, -5.57922613e-06, -0.000881481101, 0.00865909085
   2858, -0.00207330636, -0.000427376159, 0.00865909085
   2859, 0.00182075496, 0.000146054736, 0.00865909085
   2860, -0.000550453085, 0.000462105003, 0.00865909085
   2861, 0.00117953774, -0.000669663481, 0.00865909085
   2862, -0.0020269223, 9.98058604e-05, 0.00865909085
   2863, -0.000749598257, -0.000406963052, 0.00865909085
   2864, 0.00116893614, 0.000262420217, 0.00865909085
   2865, 0.000619583181, 5.30813522e-05, 0.00865909085
   2866, -0.00107353542, 1.94925287e-05, 0.00865909085
   2867, -1.23417567e-05, 0.000577200612, 0.00865909085
   2868, 3.34280012e-05, 8.49908902e-05, 0.00865909085
   2869, 0.00135823153, -8.93766119e-05, 0.00865909085
   2870, 0.000321388652, -0.000485395518, 0.00865909085
   2871, -0.000523946073, -4.92745166e-05, 0.00865909085
   2872, -0.00157230778, -0.000435936701, 0.00865909085
   2873, 0.000943185936, -0.000345294422, 0.00865909085
   2874, 0.00164351484, 0.000501646835, 0.00865909085
   2875, 0.00264639547, 0.000999862212, 0.00865909085
   2876, -0.0011104648, -0.000411461981, 0.00865909085
   2877, -0.00257178117, -0.000312425283, 0.00865909085
   2878, -0.000269917189, -0.000500896305, 0.00865909085
   2879, -0.000318563427, 0.00419643195, 0.00865909085
   2880, 0.000291611359, -0.00431829831, 0.00865909085
   2881, 0.00338417524, 0.000793792715, 0.00865909085
   2882, -0.00030827726, 0.00366496085, 0.00865909085
   2883, -0.00315928599, 0.00223519979, 0.00865909085
   2884, 0.000259194087, -0.00397536671, 0.00865909085
   2885, 0.00193770218, -0.00298756175, 0.00865909085
   2886, 0.00307746138, -0.00106590847, 0.00865909085
   2887, 0.00298592844, -0.00185081188, 0.00865909085
   2888, 0.00273260451, -0.00215353072, 0.00865909085
   2889, 0.00311360625, -0.00231958134, 0.00865909085
   2890, 0.00066264387, -0.00305879372, 0.00865909085
   2891, -7.04654376e-05, -0.00386221963, 0.00865909085
   2892, 0.000867682858, 0.0033219764, 0.00865909085
   2893, -0.000261262147, 0.0031392735, 0.00865909085
   2894, -0.00109555002, 0.00297483732, 0.00865909085
   2895, -0.00307588046, -0.000184679564, 0.00865909085
   2896, -0.00321494951, -0.000911038136, 0.00865909085
   2897, -0.00203649863, -0.00218860968, 0.00865909085
   2898, -0.000316440681, -0.00343725714, 0.00865909085
   2899, 0.00252299802, -0.0012537532, 0.00865909085
   2900, 0.00131519185, -0.00208483613, 0.00865909085
   2901, 0.000341322564, -0.00258567906, 0.00865909085
   2902, 0.00173294265, -0.000813168241, 0.00865909085
   2903, 0.00230122125, -0.000936484255, 0.00865909085
   2904, 0.00267677754, -0.000736731279, 0.00865909085
   2905, 0.000259082415, 0.00274348469, 0.00865909085
   2906, 0.000575505546, -0.00184310519, 0.00865909085
   2907, -0.000623953005, 0.00253588241, 0.00865909085
   2908, -0.00151159009, 0.0022516863, 0.00865909085
   2909, -0.00250703539, 0.000170841202, 0.00865909085
   2910, -0.00128795544, -0.00168707827, 0.00865909085
   2911, 3.53105897e-05, -0.000303478009, 0.00865909085
   2912, 0.000887008209, -0.000876231119, 0.00865909085
   2913, -0.00198668684, 0.000639819016, 0.00865909085
   2914, -0.0011102251, 0.00210071378, 0.00865909085
   2915, -0.00134775729, 0.00112348737, 0.00865909085
   2916, -0.000908393471, -0.00129355956, 0.00865909085
   2917, -0.00042536456, -0.00114225002, 0.00865909085
   2918, -0.00105097017, 0.000458524708, 0.00865909085
   2919, -0.000610636838, -0.000723266741, 0.00865909085
   2920, -0.000904230517, 0.00162378035, 0.00865909085
   2921, -0.00150804105, 0.000569030643, 0.00865909085
   2922, -0.00135324989, 0.00396553334, 0.00923636369
   2923, -0.00402056053, 0.00101029815, 0.00923636369
   2924, -0.00297016394, -0.00289217359, 0.00923636369
   2925, 0.00397308171, 0.000992201152, 0.00923636369
   2926, 0.00212350115, 0.00354511268, 0.00923636369
   2927, 0.00125990773, -0.00400250824, 0.00923636369
   2928, 0.00314467889, -0.00292053982, 0.00923636369
   2929, 0.00374832447, -0.00209765113, 0.00923636369
   2930, 0.00407549227, -0.0011225834, 0.00923636369
   2931, 0.00415758137, -6.347007e-05, 0.00923636369
   2932, 0.00409602048, 0.000468003738, 0.00923636369
   2933, 0.0037879236, 0.00149980339, 0.00923636369
   2934, 0.00325157144, 0.00243436219, 0.00923636369
   2935, 0.00253152288, 0.00322010578, 0.00923636369
   2936, 0.00169254269, 0.0038232198, 0.00923636369
   2937, 0.000712110021, 0.00416869624, 0.00923636369
   2938, -0.000841098255, 0.00411218498, 0.00923636369
   2939, -0.00274003926, 0.00317171472, 0.00923636369
   2940, -0.00347115193, 0.00247505447, 0.00923636369
   2941, -0.0038807285, 0.00153199071, 0.00923636369
   2942, -0.00414161896, -0.000574599137, 0.00923636369
   2943, -0.00387396198, -0.0015894291, 0.00923636369
   2944, -0.00332311704, -0.0024855223, 0.00923636369
   2945, -0.00166725682, -0.00383298844, 0.00923636369
   2946, -0.000695951923, -0.0042049773, 0.00923636369
   2947, 0.000772389176, -0.00419611763, 0.00923636369
   2948, 0.00175150984, -0.00376692018, 0.00923636369
   2949, 0.00271001016, -0.00320286886, 0.00923636369
   2950, 0.00348136015, -0.00254004332, 0.00923636369
   2951, 0.00394045236, -0.00162366871, 0.00923636369
   2952, 0.00414883252, -0.000596157275, 0.00923636369
   2953, 0.00351941655, 0.000324701221, 0.00923636369
   2954, 0.00204495573, 0.00282008061, 0.00923636369
   2955, -0.00282244734, -0.00216782326, 0.00923636369
   2956, -0.000771973282, 0.00357665564, 0.00923636369
   2957, -0.00333736744, 0.00136134401, 0.00923636369
   2958, 0.000988309504, -0.00351155247, 0.00923636369
   2959, 0.00055882131, -0.00375104626, 0.00923636369
   2960, 0.00291620707, -0.0026352373, 0.00923636369
   2961, 0.00245204382, -0.00265190401, 0.00923636369
   2962, 0.0017081257, 0.00312953047, 0.00923636369
   2963, 0.00320142228, 0.00125144038, 0.00923636369
   2964, 0.00344620412, -0.00153000653, 0.00923636369
   2965, 0.00361137488, -0.000615609053, 0.00923636369
   2966, 0.00354529684, 0.0019814691, 0.00923636369
   2967, 0.00291160378, 0.00284737698, 0.00923636369
   2968, -0.00256794249, -0.00325510488, 0.00923636369
   2969, 0.00121839147, 0.00404197443, 0.00923636369
   2970, -0.00362852868, -0.00204763818, 0.00923636369
   2971, -0.0018484731, 0.00375401648, 0.00923636369
   2972, -0.00411584042, 0.000482196308, 0.00923636369
   2973, -0.00312830484, 0.00284483354, 0.00923636369
   2974, -0.00370325963, 0.00202818681, 0.00923636369
   2975, -0.004051005, -0.00109450193, 0.00923636369
   2976, 0.00223719073, -0.00349180237, 0.00923636369
   2977, -0.00119344355, -0.00404366432, 0.00923636369
   2978, 0.000197806672, 0.00421733828, 0.00923636369
   2979, -0.00212981319, -0.00356914126, 0.00923636369
   2980, -0.000204375261, -0.00430176966, 0.00923636369
   2981, -0.00416028267, -4.47708662e-05, 0.00923636369
   2982, -0.00230909651, 0.00348860933, 0.00923636369
   2983, 0.0011545578, -0.0027996928, 0.00923636369
   2984, 0.00156899134, 0.00246603554, 0.00923636369
   2985, -0.00354788383, 0.000372098963, 0.00923636369
   2986, -0.00166805799, 0.00325595844, 0.00923636369
   2987, -0.00212933798, -0.00286842952, 0.00923636369
   2988, -0.0033795936, -0.00140367029, 0.00923636369
   2989, -0.00245898636, 0.00267885718, 0.00923636369
   2990, -0.00356690213, -0.0010022528, 0.00923636369
   2991, 0.00238249777, 0.00247614784, 0.00923636369
   2992, -0.00320774689, 0.00183734798, 0.00923636369
   2993, 0.00145717501, -0.00326528074, 0.00923636369
   2994, -0.00207244186, 0.0029983623, 0.00923636369
   2995, -0.00130714767, -0.00338947773, 0.00923636369
   2996, 0.000140731077, 0.00371151417, 0.00923636369
   2997, -0.00172811642, -0.0031537991, 0.00923636369
   2998, -0.00362091744, -0.000560386456, 0.00923636369
   2999, -0.00360488612, -0.000101052217, 0.00923636369
   3000, 0.00137465156, 0.00340616587, 0.00923636369
   3001, 0.00296684611, 0.0016876508, 0.00923636369
   3002, -0.00313480734, -0.000599588093, 0.00923636369
   3003, -0.00148921448, 0.00282661617, 0.00923636369
   3004, -0.00301071326, 0.000265140668, 0.00923636369
   3005, -0.00171224575, -0.00250490871, 0.00923636369
   3006, -0.00182060245, 0.00256777345, 0.00923636369
   3007, -0.00135453546, -0.0027738472, 0.00923636369
   3008,  0.001870826,  0.002135196, 0.00923636369
   3009, -0.00282380497, 0.00123672944, 0.00923636369
   3010, 0.00205148384, -0.00223219814, 0.00923636369
   3011, 0.00100395468, 0.00362518849, 0.00923636369
   3012, 0.000152082255, 0.00321342587, 0.00923636369
   3013, 0.000156014619, -0.00336919143, 0.00923636369
   3014, -0.00249434332, -0.00253175036, 0.00923636369
   3015, -0.00122060697, 0.00345152454, 0.00923636369
   3016, -0.00346104824, 0.000866823015, 0.00923636369
   3017, 0.00128685881, 0.00278062373, 0.00923636369
   3018, 0.00161891407, -0.00253219646, 0.00923636369
   3019, -0.000900272455, -0.0035955233, 0.00923636369
   3020, -0.0012980618, -0.00218321267, 0.00923636369
   3021, -0.00134095387, 0.00252467697, 0.00923636369
   3022, 0.00269140187, 0.00209695008, 0.00923636369
   3023, 0.00137190078, 0.00182387407, 0.00923636369
   3024, -0.000564105227, -0.00319002755, 0.00923636369
   3025, 0.00110149034, 0.00216783886, 0.00923636369
   3026, 0.000847242423, -0.00232953043, 0.00923636369
   3027, 0.00174873474, -0.00182702171, 0.00923636369
   3028, 0.00058890396, 0.00371043221, 0.00923636369
   3029, -0.00216334779, 0.00220700284, 0.00923636369
   3030, 0.00243393006, -0.00186947593, 0.00923636369
   3031, -0.000690910092, 0.00305446191, 0.00923636369
   3032, -0.000485159166, -0.00377474586, 0.00923636369
   3033, 0.000876111619, 0.00152649579, 0.00923636369
   3034, -0.00160967186, -0.00190408016, 0.00923636369
   3035, -0.0010938209, -0.00245171133, 0.00923636369
   3036, -0.00175259309, 0.00184043497, 0.00923636369
   3037, -0.000186767342, 0.00261800084, 0.00923636369
   3038, 0.00215857429, 0.00178177387, 0.00923636369
   3039, -0.000160787502, -0.00287347427, 0.00923636369
   3040, 0.000860432629, 0.00251776353, 0.00923636369
   3041, 0.0028853002, -0.00150461926, 0.00923636369
   3042, -0.00282635377, 0.00239056721, 0.00923636369
   3043, 0.000548588345, 0.00327916909, 0.00923636369
   3044, -0.00103522185, 0.00252056657, 0.00923636369
   3045, 0.00283275265, 0.000586048176, 0.00923636369
   3046, 0.00215272489, -0.00154284958, 0.00923636369
   3047, 0.00333265262, -0.00193863653, 0.00923636369
   3048, 0.00355281425, -0.00108770491, 0.00923636369
   3049, 0.00359481131, -0.000145130383, 0.00923636369
   3050, -0.0023359023, -0.00183082477, 0.00923636369
   3051, 0.00306482054, -0.000248516328, 0.00923636369
   3052, 0.000667472021, 0.00288068084, 0.00923636369
   3053, 0.00104305637, 0.00307724578, 0.00923636369
   3054, -0.00083199935, -0.00185014843, 0.00923636369
   3055, -0.000604834524, 0.00196997123, 0.00923636369
   3056, -0.00259547913, 0.00179638213, 0.00923636369
   3057, 3.88241388e-05, -0.00210830895, 0.00923636369
   3058, 0.00164725259, 0.00148151908, 0.00923636369
   3059, 0.00242095604, 0.00140251254, 0.00923636369
   3060, 0.000627421017, 0.00191148254, 0.00923636369
   3061, -0.0013811196,  -0.00135007, 0.00923636369
   3062, 0.00275410013, -0.00101068977, 0.00923636369
   3063, -0.00187416759, -0.00152094779, 0.00923636369
   3064, -0.00242865551, 0.00105836208, 0.00923636369
   3065, -6.0290673e-05, 0.0021352896, 0.00923636369
   3066, 0.00257243309, -0.000391532725, 0.00923636369
   3067, -0.00263268594, -0.00146373489, 0.00923636369
   3068, 0.00191721506, -0.00118202239, 0.00923636369
   3069, -0.000580140157, -0.00244367123, 0.00923636369
   3070, -0.00201350613, 0.00129957171, 0.00923636369
   3071, 0.00106725481, -0.00164589926, 0.00923636369
   3072, 0.00114658801, 0.00117507228, 0.00923636369
   3073, 0.00190618366, 0.00112789962, 0.00923636369
   3074, 0.000366628345, 0.00123818335, 0.00923636369
   3075, 0.000416493887, 0.00231370912, 0.00923636369
   3076, -0.00103527016, -0.000848668802, 0.00923636369
   3077, 0.00296931528, 0.000166841462, 0.00923636369
   3078, 0.00151707651, -0.00142398698, 0.00923636369
   3079, -0.000801510876, 0.00128439965, 0.00923636369
   3080, -0.000209167163, -0.00161284197, 0.00923636369
   3081, -0.00296090939, -0.00114833191, 0.00923636369
   3082, 0.0024549847, -1.4813204e-05, 0.00923636369
   3083, 0.000914154225, -0.00122501259, 0.00923636369
   3084, 0.00134233665, -0.00103631616, 0.00923636369
   3085, 0.00143360544, 0.000859176042, 0.00923636369
   3086, 0.00212829164, 0.000752113643, 0.00923636369
   3087, -0.00294047943, 0.000742614502, 0.00923636369
   3088, 0.00230799569, 0.000370419933, 0.00923636369
   3089, 0.00311195711, -0.000649643189, 0.00923636369
   3090, 0.00213276432, -0.000587722694, 0.00923636369
   3091, -0.000944585889, -0.00296284794, 0.00923636369
   3092, 0.000141423341, 0.00168791867, 0.00923636369
   3093, 0.000622865162, 0.000741376076, 0.00923636369
   3094, -0.000340482773, 0.00149200519, 0.00923636369
   3095, 0.000361654878, -0.0012826228, 0.00923636369
   3096, -0.0012926287, 0.00166836032, 0.00923636369
   3097, 0.000613496988, -0.000732398708, 0.00923636369
   3098, -0.000151188229, 0.0010424651, 0.00923636369
   3099, 0.00198280136, -0.000219871872, 0.00923636369
   3100, -0.000633230025, 0.000901054882, 0.00923636369
   3101, -0.00155415211, 5.21985748e-05, 0.00923636369
   3102, -0.00214766851, -0.00102410931, 0.00923636369
   3103, -0.00245067058, 0.000644518586, 0.00923636369
   3104, 0.00155171473, -0.000442923862, 0.00923636369
   3105, 0.00107027742, 0.000601972977, 0.00923636369
   3106, -0.00152497459, -0.000917053316, 0.00923636369
   3107, -0.0010117389, 0.000809108606, 0.00923636369
   3108, -0.00268690172, -0.000761706033, 0.00923636369
   3109, -0.00312115229, -0.00178152137, 0.00923636369
   3110, -5.57922613e-06, -0.000881481101, 0.00923636369
   3111, -0.00207330636, -0.000427376159, 0.00923636369
   3112, 0.00182075496, 0.000146054736, 0.00923636369
   3113, -0.000550453085, 0.000462105003, 0.00923636369
   3114, 0.00117953774, -0.000669663481, 0.00923636369
   3115, -0.0020269223, 9.98058604e-05, 0.00923636369
   3116, -0.000749598257, -0.000406963052, 0.00923636369
   3117, 0.00116893614, 0.000262420217, 0.00923636369
   3118, 0.000619583181, 5.30813522e-05, 0.00923636369
   3119, -0.00107353542, 1.94925287e-05, 0.00923636369
   3120, -1.23417567e-05, 0.000577200612, 0.00923636369
   3121, 3.34280012e-05, 8.49908902e-05, 0.00923636369
   3122, 0.00135823153, -8.93766119e-05, 0.00923636369
   3123, 0.000321388652, -0.000485395518, 0.00923636369
   3124, -0.000523946073, -4.92745166e-05, 0.00923636369
   3125, -0.00157230778, -0.000435936701, 0.00923636369
   3126, 0.000943185936, -0.000345294422, 0.00923636369
   3127, 0.00164351484, 0.000501646835, 0.00923636369
   3128, 0.00264639547, 0.000999862212, 0.00923636369
   3129, -0.0011104648, -0.000411461981, 0.00923636369
   3130, -0.00257178117, -0.000312425283, 0.00923636369
   3131, -0.000269917189, -0.000500896305, 0.00923636369
   3132, -0.000318563427, 0.00419643195, 0.00923636369
   3133, 0.000291611359, -0.00431829831, 0.00923636369
   3134, 0.00338417524, 0.000793792715, 0.00923636369
   3135, -0.00030827726, 0.00366496085, 0.00923636369
   3136, -0.00315928599, 0.00223519979, 0.00923636369
   3137, 0.000259194087, -0.00397536671, 0.00923636369
   3138, 0.00193770218, -0.00298756175, 0.00923636369
   3139, 0.00307746138, -0.00106590847, 0.00923636369
   3140, 0.00298592844, -0.00185081188, 0.00923636369
   3141, 0.00273260451, -0.00215353072, 0.00923636369
   3142, 0.00311360625, -0.00231958134, 0.00923636369
   3143, 0.00066264387, -0.00305879372, 0.00923636369
   3144, -7.04654376e-05, -0.00386221963, 0.00923636369
   3145, 0.000867682858, 0.0033219764, 0.00923636369
   3146, -0.000261262147, 0.0031392735, 0.00923636369
   3147, -0.00109555002, 0.00297483732, 0.00923636369
   3148, -0.00307588046, -0.000184679564, 0.00923636369
   3149, -0.00321494951, -0.000911038136, 0.00923636369
   3150, -0.00203649863, -0.00218860968, 0.00923636369
   3151, -0.000316440681, -0.00343725714, 0.00923636369
   3152, 0.00252299802, -0.0012537532, 0.00923636369
   3153, 0.00131519185, -0.00208483613, 0.00923636369
   3154, 0.000341322564, -0.00258567906, 0.00923636369
   3155, 0.00173294265, -0.000813168241, 0.00923636369
   3156, 0.00230122125, -0.000936484255, 0.00923636369
   3157, 0.00267677754, -0.000736731279, 0.00923636369
   3158, 0.000259082415, 0.00274348469, 0.00923636369
   3159, 0.000575505546, -0.00184310519, 0.00923636369
   3160, -0.000623953005, 0.00253588241, 0.00923636369
   3161, -0.00151159009, 0.0022516863, 0.00923636369
   3162, -0.00250703539, 0.000170841202, 0.00923636369
   3163, -0.00128795544, -0.00168707827, 0.00923636369
   3164, 3.53105897e-05, -0.000303478009, 0.00923636369
   3165, 0.000887008209, -0.000876231119, 0.00923636369
   3166, -0.00198668684, 0.000639819016, 0.00923636369
   3167, -0.0011102251, 0.00210071378, 0.00923636369
   3168, -0.00134775729, 0.00112348737, 0.00923636369
   3169, -0.000908393471, -0.00129355956, 0.00923636369
   3170, -0.00042536456, -0.00114225002, 0.00923636369
   3171, -0.00105097017, 0.000458524708, 0.00923636369
   3172, -0.000610636838, -0.000723266741, 0.00923636369
   3173, -0.000904230517, 0.00162378035, 0.00923636369
   3174, -0.00150804105, 0.000569030643, 0.00923636369
   3175, -0.00135324989, 0.00396553334, 0.00981363654
   3176, -0.00402056053, 0.00101029815, 0.00981363654
   3177, -0.00297016394, -0.00289217359, 0.00981363654
   3178, 0.00397308171, 0.000992201152, 0.00981363654
   3179, 0.00212350115, 0.00354511268, 0.00981363654
   3180, 0.00125990773, -0.00400250824, 0.00981363654
   3181, 0.00314467889, -0.00292053982, 0.00981363654
   3182, 0.00374832447, -0.00209765113, 0.00981363654
   3183, 0.00407549227, -0.0011225834, 0.00981363654
   3184, 0.00415758137, -6.347007e-05, 0.00981363654
   3185, 0.00409602048, 0.000468003738, 0.00981363654
   3186, 0.0037879236, 0.00149980339, 0.00981363654
   3187, 0.00325157144, 0.00243436219, 0.00981363654
   3188, 0.00253152288, 0.00322010578, 0.00981363654
   3189, 0.00169254269, 0.0038232198, 0.00981363654
   3190, 0.000712110021, 0.00416869624, 0.00981363654
   3191, -0.000841098255, 0.00411218498, 0.00981363654
   3192, -0.00274003926, 0.00317171472, 0.00981363654
   3193, -0.00347115193, 0.00247505447, 0.00981363654
   3194, -0.0038807285, 0.00153199071, 0.00981363654
   3195, -0.00414161896, -0.000574599137, 0.00981363654
   3196, -0.00387396198, -0.0015894291, 0.00981363654
   3197, -0.00332311704, -0.0024855223, 0.00981363654
   3198, -0.00166725682, -0.00383298844, 0.00981363654
   3199, -0.000695951923, -0.0042049773, 0.00981363654
   3200, 0.000772389176, -0.00419611763, 0.00981363654
   3201, 0.00175150984, -0.00376692018, 0.00981363654
   3202, 0.00271001016, -0.00320286886, 0.00981363654
   3203, 0.00348136015, -0.00254004332, 0.00981363654
   3204, 0.00394045236, -0.00162366871, 0.00981363654
   3205, 0.00414883252, -0.000596157275, 0.00981363654
   3206, 0.00351941655, 0.000324701221, 0.00981363654
   3207, 0.00204495573, 0.00282008061, 0.00981363654
   3208, -0.00282244734, -0.00216782326, 0.00981363654
   3209, -0.000771973282, 0.00357665564, 0.00981363654
   3210, -0.00333736744, 0.00136134401, 0.00981363654
   3211, 0.000988309504, -0.00351155247, 0.00981363654
   3212, 0.00055882131, -0.00375104626, 0.00981363654
   3213, 0.00291620707, -0.0026352373, 0.00981363654
   3214, 0.00245204382, -0.00265190401, 0.00981363654
   3215, 0.0017081257, 0.00312953047, 0.00981363654
   3216, 0.00320142228, 0.00125144038, 0.00981363654
   3217, 0.00344620412, -0.00153000653, 0.00981363654
   3218, 0.00361137488, -0.000615609053, 0.00981363654
   3219, 0.00354529684, 0.0019814691, 0.00981363654
   3220, 0.00291160378, 0.00284737698, 0.00981363654
   3221, -0.00256794249, -0.00325510488, 0.00981363654
   3222, 0.00121839147, 0.00404197443, 0.00981363654
   3223, -0.00362852868, -0.00204763818, 0.00981363654
   3224, -0.0018484731, 0.00375401648, 0.00981363654
   3225, -0.00411584042, 0.000482196308, 0.00981363654
   3226, -0.00312830484, 0.00284483354, 0.00981363654
   3227, -0.00370325963, 0.00202818681, 0.00981363654
   3228, -0.004051005, -0.00109450193, 0.00981363654
   3229, 0.00223719073, -0.00349180237, 0.00981363654
   3230, -0.00119344355, -0.00404366432, 0.00981363654
   3231, 0.000197806672, 0.00421733828, 0.00981363654
   3232, -0.00212981319, -0.00356914126, 0.00981363654
   3233, -0.000204375261, -0.00430176966, 0.00981363654
   3234, -0.00416028267, -4.47708662e-05, 0.00981363654
   3235, -0.00230909651, 0.00348860933, 0.00981363654
   3236, 0.0011545578, -0.0027996928, 0.00981363654
   3237, 0.00156899134, 0.00246603554, 0.00981363654
   3238, -0.00354788383, 0.000372098963, 0.00981363654
   3239, -0.00166805799, 0.00325595844, 0.00981363654
   3240, -0.00212933798, -0.00286842952, 0.00981363654
   3241, -0.0033795936, -0.00140367029, 0.00981363654
   3242, -0.00245898636, 0.00267885718, 0.00981363654
   3243, -0.00356690213, -0.0010022528, 0.00981363654
   3244, 0.00238249777, 0.00247614784, 0.00981363654
   3245, -0.00320774689, 0.00183734798, 0.00981363654
   3246, 0.00145717501, -0.00326528074, 0.00981363654
   3247, -0.00207244186, 0.0029983623, 0.00981363654
   3248, -0.00130714767, -0.00338947773, 0.00981363654
   3249, 0.000140731077, 0.00371151417, 0.00981363654
   3250, -0.00172811642, -0.0031537991, 0.00981363654
   3251, -0.00362091744, -0.000560386456, 0.00981363654
   3252, -0.00360488612, -0.000101052217, 0.00981363654
   3253, 0.00137465156, 0.00340616587, 0.00981363654
   3254, 0.00296684611, 0.0016876508, 0.00981363654
   3255, -0.00313480734, -0.000599588093, 0.00981363654
   3256, -0.00148921448, 0.00282661617, 0.00981363654
   3257, -0.00301071326, 0.000265140668, 0.00981363654
   3258, -0.00171224575, -0.00250490871, 0.00981363654
   3259, -0.00182060245, 0.00256777345, 0.00981363654
   3260, -0.00135453546, -0.0027738472, 0.00981363654
   3261,  0.001870826,  0.002135196, 0.00981363654
   3262, -0.00282380497, 0.00123672944, 0.00981363654
   3263, 0.00205148384, -0.00223219814, 0.00981363654
   3264, 0.00100395468, 0.00362518849, 0.00981363654
   3265, 0.000152082255, 0.00321342587, 0.00981363654
   3266, 0.000156014619, -0.00336919143, 0.00981363654
   3267, -0.00249434332, -0.00253175036, 0.00981363654
   3268, -0.00122060697, 0.00345152454, 0.00981363654
   3269, -0.00346104824, 0.000866823015, 0.00981363654
   3270, 0.00128685881, 0.00278062373, 0.00981363654
   3271, 0.00161891407, -0.00253219646, 0.00981363654
   3272, -0.000900272455, -0.0035955233, 0.00981363654
   3273, -0.0012980618, -0.00218321267, 0.00981363654
   3274, -0.00134095387, 0.00252467697, 0.00981363654
   3275, 0.00269140187, 0.00209695008, 0.00981363654
   3276, 0.00137190078, 0.00182387407, 0.00981363654
   3277, -0.000564105227, -0.00319002755, 0.00981363654
   3278, 0.00110149034, 0.00216783886, 0.00981363654
   3279, 0.000847242423, -0.00232953043, 0.00981363654
   3280, 0.00174873474, -0.00182702171, 0.00981363654
   3281, 0.00058890396, 0.00371043221, 0.00981363654
   3282, -0.00216334779, 0.00220700284, 0.00981363654
   3283, 0.00243393006, -0.00186947593, 0.00981363654
   3284, -0.000690910092, 0.00305446191, 0.00981363654
   3285, -0.000485159166, -0.00377474586, 0.00981363654
   3286, 0.000876111619, 0.00152649579, 0.00981363654
   3287, -0.00160967186, -0.00190408016, 0.00981363654
   3288, -0.0010938209, -0.00245171133, 0.00981363654
   3289, -0.00175259309, 0.00184043497, 0.00981363654
   3290, -0.000186767342, 0.00261800084, 0.00981363654
   3291, 0.00215857429, 0.00178177387, 0.00981363654
   3292, -0.000160787502, -0.00287347427, 0.00981363654
   3293, 0.000860432629, 0.00251776353, 0.00981363654
   3294, 0.0028853002, -0.00150461926, 0.00981363654
   3295, -0.00282635377, 0.00239056721, 0.00981363654
   3296, 0.000548588345, 0.00327916909, 0.00981363654
   3297, -0.00103522185, 0.00252056657, 0.00981363654
   3298, 0.00283275265, 0.000586048176, 0.00981363654
   3299, 0.00215272489, -0.00154284958, 0.00981363654
   3300, 0.00333265262, -0.00193863653, 0.00981363654
   3301, 0.00355281425, -0.00108770491, 0.00981363654
   3302, 0.00359481131, -0.000145130383, 0.00981363654
   3303, -0.0023359023, -0.00183082477, 0.00981363654
   3304, 0.00306482054, -0.000248516328, 0.00981363654
   3305, 0.000667472021, 0.00288068084, 0.00981363654
   3306, 0.00104305637, 0.00307724578, 0.00981363654
   3307, -0.00083199935, -0.00185014843, 0.00981363654
   3308, -0.000604834524, 0.00196997123, 0.00981363654
   3309, -0.00259547913, 0.00179638213, 0.00981363654
   3310, 3.88241388e-05, -0.00210830895, 0.00981363654
   3311, 0.00164725259, 0.00148151908, 0.00981363654
   3312, 0.00242095604, 0.00140251254, 0.00981363654
   3313, 0.000627421017, 0.00191148254, 0.00981363654
   3314, -0.0013811196,  -0.00135007, 0.00981363654
   3315, 0.00275410013, -0.00101068977, 0.00981363654
   3316, -0.00187416759, -0.00152094779, 0.00981363654
   3317, -0.00242865551, 0.00105836208, 0.00981363654
   3318, -6.0290673e-05, 0.0021352896, 0.00981363654
   3319, 0.00257243309, -0.000391532725, 0.00981363654
   3320, -0.00263268594, -0.00146373489, 0.00981363654
   3321, 0.00191721506, -0.00118202239, 0.00981363654
   3322, -0.000580140157, -0.00244367123, 0.00981363654
   3323, -0.00201350613, 0.00129957171, 0.00981363654
   3324, 0.00106725481, -0.00164589926, 0.00981363654
   3325, 0.00114658801, 0.00117507228, 0.00981363654
   3326, 0.00190618366, 0.00112789962, 0.00981363654
   3327, 0.000366628345, 0.00123818335, 0.00981363654
   3328, 0.000416493887, 0.00231370912, 0.00981363654
   3329, -0.00103527016, -0.000848668802, 0.00981363654
   3330, 0.00296931528, 0.000166841462, 0.00981363654
   3331, 0.00151707651, -0.00142398698, 0.00981363654
   3332, -0.000801510876, 0.00128439965, 0.00981363654
   3333, -0.000209167163, -0.00161284197, 0.00981363654
   3334, -0.00296090939, -0.00114833191, 0.00981363654
   3335, 0.0024549847, -1.4813204e-05, 0.00981363654
   3336, 0.000914154225, -0.00122501259, 0.00981363654
   3337, 0.00134233665, -0.00103631616, 0.00981363654
   3338, 0.00143360544, 0.000859176042, 0.00981363654
   3339, 0.00212829164, 0.000752113643, 0.00981363654
   3340, -0.00294047943, 0.000742614502, 0.00981363654
   3341, 0.00230799569, 0.000370419933, 0.00981363654
   3342, 0.00311195711, -0.000649643189, 0.00981363654
   3343, 0.00213276432, -0.000587722694, 0.00981363654
   3344, -0.000944585889, -0.00296284794, 0.00981363654
   3345, 0.000141423341, 0.00168791867, 0.00981363654
   3346, 0.000622865162, 0.000741376076, 0.00981363654
   3347, -0.000340482773, 0.00149200519, 0.00981363654
   3348, 0.000361654878, -0.0012826228, 0.00981363654
   3349, -0.0012926287, 0.00166836032, 0.00981363654
   3350, 0.000613496988, -0.000732398708, 0.00981363654
   3351, -0.000151188229, 0.0010424651, 0.00981363654
   3352, 0.00198280136, -0.000219871872, 0.00981363654
   3353, -0.000633230025, 0.000901054882, 0.00981363654
   3354, -0.00155415211, 5.21985748e-05, 0.00981363654
   3355, -0.00214766851, -0.00102410931, 0.00981363654
   3356, -0.00245067058, 0.000644518586, 0.00981363654
   3357, 0.00155171473, -0.000442923862, 0.00981363654
   3358, 0.00107027742, 0.000601972977, 0.00981363654
   3359, -0.00152497459, -0.000917053316, 0.00981363654
   3360, -0.0010117389, 0.000809108606, 0.00981363654
   3361, -0.00268690172, -0.000761706033, 0.00981363654
   3362, -0.00312115229, -0.00178152137, 0.00981363654
   3363, -5.57922613e-06, -0.000881481101, 0.00981363654
   3364, -0.00207330636, -0.000427376159, 0.00981363654
   3365, 0.00182075496, 0.000146054736, 0.00981363654
   3366, -0.000550453085, 0.000462105003, 0.00981363654
   3367, 0.00117953774, -0.000669663481, 0.00981363654
   3368, -0.0020269223, 9.98058604e-05, 0.00981363654
   3369, -0.000749598257, -0.000406963052, 0.00981363654
   3370, 0.00116893614, 0.000262420217, 0.00981363654
   3371, 0.000619583181, 5.30813522e-05, 0.00981363654
   3372, -0.00107353542, 1.94925287e-05, 0.00981363654
   3373, -1.23417567e-05, 0.000577200612, 0.00981363654
   3374, 3.34280012e-05, 8.49908902e-05, 0.00981363654
   3375, 0.00135823153, -8.93766119e-05, 0.00981363654
   3376, 0.000321388652, -0.000485395518, 0.00981363654
   3377, -0.000523946073, -4.92745166e-05, 0.00981363654
   3378, -0.00157230778, -0.000435936701, 0.00981363654
   3379, 0.000943185936, -0.000345294422, 0.00981363654
   3380, 0.00164351484, 0.000501646835, 0.00981363654
   3381, 0.00264639547, 0.000999862212, 0.00981363654
   3382, -0.0011104648, -0.000411461981, 0.00981363654
   3383, -0.00257178117, -0.000312425283, 0.00981363654
   3384, -0.000269917189, -0.000500896305, 0.00981363654
   3385, -0.000318563427, 0.00419643195, 0.00981363654
   3386, 0.000291611359, -0.00431829831, 0.00981363654
   3387, 0.00338417524, 0.000793792715, 0.00981363654
   3388, -0.00030827726, 0.00366496085, 0.00981363654
   3389, -0.00315928599, 0.00223519979, 0.00981363654
   3390, 0.000259194087, -0.00397536671, 0.00981363654
   3391, 0.00193770218, -0.00298756175, 0.00981363654
   3392, 0.00307746138, -0.00106590847, 0.00981363654
   3393, 0.00298592844, -0.00185081188, 0.00981363654
   3394, 0.00273260451, -0.00215353072, 0.00981363654
   3395, 0.00311360625, -0.00231958134, 0.00981363654
   3396, 0.00066264387, -0.00305879372, 0.00981363654
   3397, -7.04654376e-05, -0.00386221963, 0.00981363654
   3398, 0.000867682858, 0.0033219764, 0.00981363654
   3399, -0.000261262147, 0.0031392735, 0.00981363654
   3400, -0.00109555002, 0.00297483732, 0.00981363654
   3401, -0.00307588046, -0.000184679564, 0.00981363654
   3402, -0.00321494951, -0.000911038136, 0.00981363654
   3403, -0.00203649863, -0.00218860968, 0.00981363654
   3404, -0.000316440681, -0.00343725714, 0.00981363654
   3405, 0.00252299802, -0.0012537532, 0.00981363654
   3406, 0.00131519185, -0.00208483613, 0.00981363654
   3407, 0.000341322564, -0.00258567906, 0.00981363654
   3408, 0.00173294265, -0.000813168241, 0.00981363654
   3409, 0.00230122125, -0.000936484255, 0.00981363654
   3410, 0.00267677754, -0.000736731279, 0.00981363654
   3411, 0.000259082415, 0.00274348469, 0.00981363654
   3412, 0.000575505546, -0.00184310519, 0.00981363654
   3413, -0.000623953005, 0.00253588241, 0.00981363654
   3414, -0.00151159009, 0.0022516863, 0.00981363654
   3415, -0.00250703539, 0.000170841202, 0.00981363654
   3416, -0.00128795544, -0.00168707827, 0.00981363654
   3417, 3.53105897e-05, -0.000303478009, 0.00981363654
   3418, 0.000887008209, -0.000876231119, 0.00981363654
   3419, -0.00198668684, 0.000639819016, 0.00981363654
   3420, -0.0011102251, 0.00210071378, 0.00981363654
   3421, -0.00134775729, 0.00112348737, 0.00981363654
   3422, -0.000908393471, -0.00129355956, 0.00981363654
   3423, -0.00042536456, -0.00114225002, 0.00981363654
   3424, -0.00105097017, 0.000458524708, 0.00981363654
   3425, -0.000610636838, -0.000723266741, 0.00981363654
   3426, -0.000904230517, 0.00162378035, 0.00981363654
   3427, -0.00150804105, 0.000569030643, 0.00981363654
   3428, -0.00135324989, 0.00396553334, 0.0103909094
   3429, -0.00402056053, 0.00101029815, 0.0103909094
   3430, -0.00297016394, -0.00289217359, 0.0103909094
   3431, 0.00397308171, 0.000992201152, 0.0103909094
   3432, 0.00212350115, 0.00354511268, 0.0103909094
   3433, 0.00125990773, -0.00400250824, 0.0103909094
   3434, 0.00314467889, -0.00292053982, 0.0103909094
   3435, 0.00374832447, -0.00209765113, 0.0103909094
   3436, 0.00407549227, -0.0011225834, 0.0103909094
   3437, 0.00415758137, -6.347007e-05, 0.0103909094
   3438, 0.00409602048, 0.000468003738, 0.0103909094
   3439, 0.0037879236, 0.00149980339, 0.0103909094
   3440, 0.00325157144, 0.00243436219, 0.0103909094
   3441, 0.00253152288, 0.00322010578, 0.0103909094
   3442, 0.00169254269, 0.0038232198, 0.0103909094
   3443, 0.000712110021, 0.00416869624, 0.0103909094
   3444, -0.000841098255, 0.00411218498, 0.0103909094
   3445, -0.00274003926, 0.00317171472, 0.0103909094
   3446, -0.00347115193, 0.00247505447, 0.0103909094
   3447, -0.0038807285, 0.00153199071, 0.0103909094
   3448, -0.00414161896, -0.000574599137, 0.0103909094
   3449, -0.00387396198, -0.0015894291, 0.0103909094
   3450, -0.00332311704, -0.0024855223, 0.0103909094
   3451, -0.00166725682, -0.00383298844, 0.0103909094
   3452, -0.000695951923, -0.0042049773, 0.0103909094
   3453, 0.000772389176, -0.00419611763, 0.0103909094
   3454, 0.00175150984, -0.00376692018, 0.0103909094
   3455, 0.00271001016, -0.00320286886, 0.0103909094
   3456, 0.00348136015, -0.00254004332, 0.0103909094
   3457, 0.00394045236, -0.00162366871, 0.0103909094
   3458, 0.00414883252, -0.000596157275, 0.0103909094
   3459, 0.00351941655, 0.000324701221, 0.0103909094
   3460, 0.00204495573, 0.00282008061, 0.0103909094
   3461, -0.00282244734, -0.00216782326, 0.0103909094
   3462, -0.000771973282, 0.00357665564, 0.0103909094
   3463, -0.00333736744, 0.00136134401, 0.0103909094
   3464, 0.000988309504, -0.00351155247, 0.0103909094
   3465, 0.00055882131, -0.00375104626, 0.0103909094
   3466, 0.00291620707, -0.0026352373, 0.0103909094
   3467, 0.00245204382, -0.00265190401, 0.0103909094
   3468, 0.0017081257, 0.00312953047, 0.0103909094
   3469, 0.00320142228, 0.00125144038, 0.0103909094
   3470, 0.00344620412, -0.00153000653, 0.0103909094
   3471, 0.00361137488, -0.000615609053, 0.0103909094
   3472, 0.00354529684, 0.0019814691, 0.0103909094
   3473, 0.00291160378, 0.00284737698, 0.0103909094
   3474, -0.00256794249, -0.00325510488, 0.0103909094
   3475, 0.00121839147, 0.00404197443, 0.0103909094
   3476, -0.00362852868, -0.00204763818, 0.0103909094
   3477, -0.0018484731, 0.00375401648, 0.0103909094
   3478, -0.00411584042, 0.000482196308, 0.0103909094
   3479, -0.00312830484, 0.00284483354, 0.0103909094
   3480, -0.00370325963, 0.00202818681, 0.0103909094
   3481, -0.004051005, -0.00109450193, 0.0103909094
   3482, 0.00223719073, -0.00349180237, 0.0103909094
   3483, -0.00119344355, -0.00404366432, 0.0103909094
   3484, 0.000197806672, 0.00421733828, 0.0103909094
   3485, -0.00212981319, -0.00356914126, 0.0103909094
   3486, -0.000204375261, -0.00430176966, 0.0103909094
   3487, -0.00416028267, -4.47708662e-05, 0.0103909094
   3488, -0.00230909651, 0.00348860933, 0.0103909094
   3489, 0.0011545578, -0.0027996928, 0.0103909094
   3490, 0.00156899134, 0.00246603554, 0.0103909094
   3491, -0.00354788383, 0.000372098963, 0.0103909094
   3492, -0.00166805799, 0.00325595844, 0.0103909094
   3493, -0.00212933798, -0.00286842952, 0.0103909094
   3494, -0.0033795936, -0.00140367029, 0.0103909094
   3495, -0.00245898636, 0.00267885718, 0.0103909094
   3496, -0.00356690213, -0.0010022528, 0.0103909094
   3497, 0.00238249777, 0.00247614784, 0.0103909094
   3498, -0.00320774689, 0.00183734798, 0.0103909094
   3499, 0.00145717501, -0.00326528074, 0.0103909094
   3500, -0.00207244186, 0.0029983623, 0.0103909094
   3501, -0.00130714767, -0.00338947773, 0.0103909094
   3502, 0.000140731077, 0.00371151417, 0.0103909094
   3503, -0.00172811642, -0.0031537991, 0.0103909094
   3504, -0.00362091744, -0.000560386456, 0.0103909094
   3505, -0.00360488612, -0.000101052217, 0.0103909094
   3506, 0.00137465156, 0.00340616587, 0.0103909094
   3507, 0.00296684611, 0.0016876508, 0.0103909094
   3508, -0.00313480734, -0.000599588093, 0.0103909094
   3509, -0.00148921448, 0.00282661617, 0.0103909094
   3510, -0.00301071326, 0.000265140668, 0.0103909094
   3511, -0.00171224575, -0.00250490871, 0.0103909094
   3512, -0.00182060245, 0.00256777345, 0.0103909094
   3513, -0.00135453546, -0.0027738472, 0.0103909094
   3514,  0.001870826,  0.002135196, 0.0103909094
   3515, -0.00282380497, 0.00123672944, 0.0103909094
   3516, 0.00205148384, -0.00223219814, 0.0103909094
   3517, 0.00100395468, 0.00362518849, 0.0103909094
   3518, 0.000152082255, 0.00321342587, 0.0103909094
   3519, 0.000156014619, -0.00336919143, 0.0103909094
   3520, -0.00249434332, -0.00253175036, 0.0103909094
   3521, -0.00122060697, 0.00345152454, 0.0103909094
   3522, -0.00346104824, 0.000866823015, 0.0103909094
   3523, 0.00128685881, 0.00278062373, 0.0103909094
   3524, 0.00161891407, -0.00253219646, 0.0103909094
   3525, -0.000900272455, -0.0035955233, 0.0103909094
   3526, -0.0012980618, -0.00218321267, 0.0103909094
   3527, -0.00134095387, 0.00252467697, 0.0103909094
   3528, 0.00269140187, 0.00209695008, 0.0103909094
   3529, 0.00137190078, 0.00182387407, 0.0103909094
   3530, -0.000564105227, -0.00319002755, 0.0103909094
   3531, 0.00110149034, 0.00216783886, 0.0103909094
   3532, 0.000847242423, -0.00232953043, 0.0103909094
   3533, 0.00174873474, -0.00182702171, 0.0103909094
   3534, 0.00058890396, 0.00371043221, 0.0103909094
   3535, -0.00216334779, 0.00220700284, 0.0103909094
   3536, 0.00243393006, -0.00186947593, 0.0103909094
   3537, -0.000690910092, 0.00305446191, 0.0103909094
   3538, -0.000485159166, -0.00377474586, 0.0103909094
   3539, 0.000876111619, 0.00152649579, 0.0103909094
   3540, -0.00160967186, -0.00190408016, 0.0103909094
   3541, -0.0010938209, -0.00245171133, 0.0103909094
   3542, -0.00175259309, 0.00184043497, 0.0103909094
   3543, -0.000186767342, 0.00261800084, 0.0103909094
   3544, 0.00215857429, 0.00178177387, 0.0103909094
   3545, -0.000160787502, -0.00287347427, 0.0103909094
   3546, 0.000860432629, 0.00251776353, 0.0103909094
   3547, 0.0028853002, -0.00150461926, 0.0103909094
   3548, -0.00282635377, 0.00239056721, 0.0103909094
   3549, 0.000548588345, 0.00327916909, 0.0103909094
   3550, -0.00103522185, 0.00252056657, 0.0103909094
   3551, 0.00283275265, 0.000586048176, 0.0103909094
   3552, 0.00215272489, -0.00154284958, 0.0103909094
   3553, 0.00333265262, -0.00193863653, 0.0103909094
   3554, 0.00355281425, -0.00108770491, 0.0103909094
   3555, 0.00359481131, -0.000145130383, 0.0103909094
   3556, -0.0023359023, -0.00183082477, 0.0103909094
   3557, 0.00306482054, -0.000248516328, 0.0103909094
   3558, 0.000667472021, 0.00288068084, 0.0103909094
   3559, 0.00104305637, 0.00307724578, 0.0103909094
   3560, -0.00083199935, -0.00185014843, 0.0103909094
   3561, -0.000604834524, 0.00196997123, 0.0103909094
   3562, -0.00259547913, 0.00179638213, 0.0103909094
   3563, 3.88241388e-05, -0.00210830895, 0.0103909094
   3564, 0.00164725259, 0.00148151908, 0.0103909094
   3565, 0.00242095604, 0.00140251254, 0.0103909094
   3566, 0.000627421017, 0.00191148254, 0.0103909094
   3567, -0.0013811196,  -0.00135007, 0.0103909094
   3568, 0.00275410013, -0.00101068977, 0.0103909094
   3569, -0.00187416759, -0.00152094779, 0.0103909094
   3570, -0.00242865551, 0.00105836208, 0.0103909094
   3571, -6.0290673e-05, 0.0021352896, 0.0103909094
   3572, 0.00257243309, -0.000391532725, 0.0103909094
   3573, -0.00263268594, -0.00146373489, 0.0103909094
   3574, 0.00191721506, -0.00118202239, 0.0103909094
   3575, -0.000580140157, -0.00244367123, 0.0103909094
   3576, -0.00201350613, 0.00129957171, 0.0103909094
   3577, 0.00106725481, -0.00164589926, 0.0103909094
   3578, 0.00114658801, 0.00117507228, 0.0103909094
   3579, 0.00190618366, 0.00112789962, 0.0103909094
   3580, 0.000366628345, 0.00123818335, 0.0103909094
   3581, 0.000416493887, 0.00231370912, 0.0103909094
   3582, -0.00103527016, -0.000848668802, 0.0103909094
   3583, 0.00296931528, 0.000166841462, 0.0103909094
   3584, 0.00151707651, -0.00142398698, 0.0103909094
   3585, -0.000801510876, 0.00128439965, 0.0103909094
   3586, -0.000209167163, -0.00161284197, 0.0103909094
   3587, -0.00296090939, -0.00114833191, 0.0103909094
   3588, 0.0024549847, -1.4813204e-05, 0.0103909094
   3589, 0.000914154225, -0.00122501259, 0.0103909094
   3590, 0.00134233665, -0.00103631616, 0.0103909094
   3591, 0.00143360544, 0.000859176042, 0.0103909094
   3592, 0.00212829164, 0.000752113643, 0.0103909094
   3593, -0.00294047943, 0.000742614502, 0.0103909094
   3594, 0.00230799569, 0.000370419933, 0.0103909094
   3595, 0.00311195711, -0.000649643189, 0.0103909094
   3596, 0.00213276432, -0.000587722694, 0.0103909094
   3597, -0.000944585889, -0.00296284794, 0.0103909094
   3598, 0.000141423341, 0.00168791867, 0.0103909094
   3599, 0.000622865162, 0.000741376076, 0.0103909094
   3600, -0.000340482773, 0.00149200519, 0.0103909094
   3601, 0.000361654878, -0.0012826228, 0.0103909094
   3602, -0.0012926287, 0.00166836032, 0.0103909094
   3603, 0.000613496988, -0.000732398708, 0.0103909094
   3604, -0.000151188229, 0.0010424651, 0.0103909094
   3605, 0.00198280136, -0.000219871872, 0.0103909094
   3606, -0.000633230025, 0.000901054882, 0.0103909094
   3607, -0.00155415211, 5.21985748e-05, 0.0103909094
   3608, -0.00214766851, -0.00102410931, 0.0103909094
   3609, -0.00245067058, 0.000644518586, 0.0103909094
   3610, 0.00155171473, -0.000442923862, 0.0103909094
   3611, 0.00107027742, 0.000601972977, 0.0103909094
   3612, -0.00152497459, -0.000917053316, 0.0103909094
   3613, -0.0010117389, 0.000809108606, 0.0103909094
   3614, -0.00268690172, -0.000761706033, 0.0103909094
   3615, -0.00312115229, -0.00178152137, 0.0103909094
   3616, -5.57922613e-06, -0.000881481101, 0.0103909094
   3617, -0.00207330636, -0.000427376159, 0.0103909094
   3618, 0.00182075496, 0.000146054736, 0.0103909094
   3619, -0.000550453085, 0.000462105003, 0.0103909094
   3620, 0.00117953774, -0.000669663481, 0.0103909094
   3621, -0.0020269223, 9.98058604e-05, 0.0103909094
   3622, -0.000749598257, -0.000406963052, 0.0103909094
   3623, 0.00116893614, 0.000262420217, 0.0103909094
   3624, 0.000619583181, 5.30813522e-05, 0.0103909094
   3625, -0.00107353542, 1.94925287e-05, 0.0103909094
   3626, -1.23417567e-05, 0.000577200612, 0.0103909094
   3627, 3.34280012e-05, 8.49908902e-05, 0.0103909094
   3628, 0.00135823153, -8.93766119e-05, 0.0103909094
   3629, 0.000321388652, -0.000485395518, 0.0103909094
   3630, -0.000523946073, -4.92745166e-05, 0.0103909094
   3631, -0.00157230778, -0.000435936701, 0.0103909094
   3632, 0.000943185936, -0.000345294422, 0.0103909094
   3633, 0.00164351484, 0.000501646835, 0.0103909094
   3634, 0.00264639547, 0.000999862212, 0.0103909094
   3635, -0.0011104648, -0.000411461981, 0.0103909094
   3636, -0.00257178117, -0.000312425283, 0.0103909094
   3637, -0.000269917189, -0.000500896305, 0.0103909094
   3638, -0.000318563427, 0.00419643195, 0.0103909094
   3639, 0.000291611359, -0.00431829831, 0.0103909094
   3640, 0.00338417524, 0.000793792715, 0.0103909094
   3641, -0.00030827726, 0.00366496085, 0.0103909094
   3642, -0.00315928599, 0.00223519979, 0.0103909094
   3643, 0.000259194087, -0.00397536671, 0.0103909094
   3644, 0.00193770218, -0.00298756175, 0.0103909094
   3645, 0.00307746138, -0.00106590847, 0.0103909094
   3646, 0.00298592844, -0.00185081188, 0.0103909094
   3647, 0.00273260451, -0.00215353072, 0.0103909094
   3648, 0.00311360625, -0.00231958134, 0.0103909094
   3649, 0.00066264387, -0.00305879372, 0.0103909094
   3650, -7.04654376e-05, -0.00386221963, 0.0103909094
   3651, 0.000867682858, 0.0033219764, 0.0103909094
   3652, -0.000261262147, 0.0031392735, 0.0103909094
   3653, -0.00109555002, 0.00297483732, 0.0103909094
   3654, -0.00307588046, -0.000184679564, 0.0103909094
   3655, -0.00321494951, -0.000911038136, 0.0103909094
   3656, -0.00203649863, -0.00218860968, 0.0103909094
   3657, -0.000316440681, -0.00343725714, 0.0103909094
   3658, 0.00252299802, -0.0012537532, 0.0103909094
   3659, 0.00131519185, -0.00208483613, 0.0103909094
   3660, 0.000341322564, -0.00258567906, 0.0103909094
   3661, 0.00173294265, -0.000813168241, 0.0103909094
   3662, 0.00230122125, -0.000936484255, 0.0103909094
   3663, 0.00267677754, -0.000736731279, 0.0103909094
   3664, 0.000259082415, 0.00274348469, 0.0103909094
   3665, 0.000575505546, -0.00184310519, 0.0103909094
   3666, -0.000623953005, 0.00253588241, 0.0103909094
   3667, -0.00151159009, 0.0022516863, 0.0103909094
   3668, -0.00250703539, 0.000170841202, 0.0103909094
   3669, -0.00128795544, -0.00168707827, 0.0103909094
   3670, 3.53105897e-05, -0.000303478009, 0.0103909094
   3671, 0.000887008209, -0.000876231119, 0.0103909094
   3672, -0.00198668684, 0.000639819016, 0.0103909094
   3673, -0.0011102251, 0.00210071378, 0.0103909094
   3674, -0.00134775729, 0.00112348737, 0.0103909094
   3675, -0.000908393471, -0.00129355956, 0.0103909094
   3676, -0.00042536456, -0.00114225002, 0.0103909094
   3677, -0.00105097017, 0.000458524708, 0.0103909094
   3678, -0.000610636838, -0.000723266741, 0.0103909094
   3679, -0.000904230517, 0.00162378035, 0.0103909094
   3680, -0.00150804105, 0.000569030643, 0.0103909094
   3681, -0.00135324989, 0.00396553334, 0.0109681813
   3682, -0.00402056053, 0.00101029815, 0.0109681813
   3683, -0.00297016394, -0.00289217359, 0.0109681813
   3684, 0.00397308171, 0.000992201152, 0.0109681813
   3685, 0.00212350115, 0.00354511268, 0.0109681813
   3686, 0.00125990773, -0.00400250824, 0.0109681813
   3687, 0.00314467889, -0.00292053982, 0.0109681813
   3688, 0.00374832447, -0.00209765113, 0.0109681813
   3689, 0.00407549227, -0.0011225834, 0.0109681813
   3690, 0.00415758137, -6.347007e-05, 0.0109681813
   3691, 0.00409602048, 0.000468003738, 0.0109681813
   3692, 0.0037879236, 0.00149980339, 0.0109681813
   3693, 0.00325157144, 0.00243436219, 0.0109681813
   3694, 0.00253152288, 0.00322010578, 0.0109681813
   3695, 0.00169254269, 0.0038232198, 0.0109681813
   3696, 0.000712110021, 0.00416869624, 0.0109681813
   3697, -0.000841098255, 0.00411218498, 0.0109681813
   3698, -0.00274003926, 0.00317171472, 0.0109681813
   3699, -0.00347115193, 0.00247505447, 0.0109681813
   3700, -0.0038807285, 0.00153199071, 0.0109681813
   3701, -0.00414161896, -0.000574599137, 0.0109681813
   3702, -0.00387396198, -0.0015894291, 0.0109681813
   3703, -0.00332311704, -0.0024855223, 0.0109681813
   3704, -0.00166725682, -0.00383298844, 0.0109681813
   3705, -0.000695951923, -0.0042049773, 0.0109681813
   3706, 0.000772389176, -0.00419611763, 0.0109681813
   3707, 0.00175150984, -0.00376692018, 0.0109681813
   3708, 0.00271001016, -0.00320286886, 0.0109681813
   3709, 0.00348136015, -0.00254004332, 0.0109681813
   3710, 0.00394045236, -0.00162366871, 0.0109681813
   3711, 0.00414883252, -0.000596157275, 0.0109681813
   3712, 0.00351941655, 0.000324701221, 0.0109681813
   3713, 0.00204495573, 0.00282008061, 0.0109681813
   3714, -0.00282244734, -0.00216782326, 0.0109681813
   3715, -0.000771973282, 0.00357665564, 0.0109681813
   3716, -0.00333736744, 0.00136134401, 0.0109681813
   3717, 0.000988309504, -0.00351155247, 0.0109681813
   3718, 0.00055882131, -0.00375104626, 0.0109681813
   3719, 0.00291620707, -0.0026352373, 0.0109681813
   3720, 0.00245204382, -0.00265190401, 0.0109681813
   3721, 0.0017081257, 0.00312953047, 0.0109681813
   3722, 0.00320142228, 0.00125144038, 0.0109681813
   3723, 0.00344620412, -0.00153000653, 0.0109681813
   3724, 0.00361137488, -0.000615609053, 0.0109681813
   3725, 0.00354529684, 0.0019814691, 0.0109681813
   3726, 0.00291160378, 0.00284737698, 0.0109681813
   3727, -0.00256794249, -0.00325510488, 0.0109681813
   3728, 0.00121839147, 0.00404197443, 0.0109681813
   3729, -0.00362852868, -0.00204763818, 0.0109681813
   3730, -0.0018484731, 0.00375401648, 0.0109681813
   3731, -0.00411584042, 0.000482196308, 0.0109681813
   3732, -0.00312830484, 0.00284483354, 0.0109681813
   3733, -0.00370325963, 0.00202818681, 0.0109681813
   3734, -0.004051005, -0.00109450193, 0.0109681813
   3735, 0.00223719073, -0.00349180237, 0.0109681813
   3736, -0.00119344355, -0.00404366432, 0.0109681813
   3737, 0.000197806672, 0.00421733828, 0.0109681813
   3738, -0.00212981319, -0.00356914126, 0.0109681813
   3739, -0.000204375261, -0.00430176966, 0.0109681813
   3740, -0.00416028267, -4.47708662e-05, 0.0109681813
   3741, -0.00230909651, 0.00348860933, 0.0109681813
   3742, 0.0011545578, -0.0027996928, 0.0109681813
   3743, 0.00156899134, 0.00246603554, 0.0109681813
   3744, -0.00354788383, 0.000372098963, 0.0109681813
   3745, -0.00166805799, 0.00325595844, 0.0109681813
   3746, -0.00212933798, -0.00286842952, 0.0109681813
   3747, -0.0033795936, -0.00140367029, 0.0109681813
   3748, -0.00245898636, 0.00267885718, 0.0109681813
   3749, -0.00356690213, -0.0010022528, 0.0109681813
   3750, 0.00238249777, 0.00247614784, 0.0109681813
   3751, -0.00320774689, 0.00183734798, 0.0109681813
   3752, 0.00145717501, -0.00326528074, 0.0109681813
   3753, -0.00207244186, 0.0029983623, 0.0109681813
   3754, -0.00130714767, -0.00338947773, 0.0109681813
   3755, 0.000140731077, 0.00371151417, 0.0109681813
   3756, -0.00172811642, -0.0031537991, 0.0109681813
   3757, -0.00362091744, -0.000560386456, 0.0109681813
   3758, -0.00360488612, -0.000101052217, 0.0109681813
   3759, 0.00137465156, 0.00340616587, 0.0109681813
   3760, 0.00296684611, 0.0016876508, 0.0109681813
   3761, -0.00313480734, -0.000599588093, 0.0109681813
   3762, -0.00148921448, 0.00282661617, 0.0109681813
   3763, -0.00301071326, 0.000265140668, 0.0109681813
   3764, -0.00171224575, -0.00250490871, 0.0109681813
   3765, -0.00182060245, 0.00256777345, 0.0109681813
   3766, -0.00135453546, -0.0027738472, 0.0109681813
   3767,  0.001870826,  0.002135196, 0.0109681813
   3768, -0.00282380497, 0.00123672944, 0.0109681813
   3769, 0.00205148384, -0.00223219814, 0.0109681813
   3770, 0.00100395468, 0.00362518849, 0.0109681813
   3771, 0.000152082255, 0.00321342587, 0.0109681813
   3772, 0.000156014619, -0.00336919143, 0.0109681813
   3773, -0.00249434332, -0.00253175036, 0.0109681813
   3774, -0.00122060697, 0.00345152454, 0.0109681813
   3775, -0.00346104824, 0.000866823015, 0.0109681813
   3776, 0.00128685881, 0.00278062373, 0.0109681813
   3777, 0.00161891407, -0.00253219646, 0.0109681813
   3778, -0.000900272455, -0.0035955233, 0.0109681813
   3779, -0.0012980618, -0.00218321267, 0.0109681813
   3780, -0.00134095387, 0.00252467697, 0.0109681813
   3781, 0.00269140187, 0.00209695008, 0.0109681813
   3782, 0.00137190078, 0.00182387407, 0.0109681813
   3783, -0.000564105227, -0.00319002755, 0.0109681813
   3784, 0.00110149034, 0.00216783886, 0.0109681813
   3785, 0.000847242423, -0.00232953043, 0.0109681813
   3786, 0.00174873474, -0.00182702171, 0.0109681813
   3787, 0.00058890396, 0.00371043221, 0.0109681813
   3788, -0.00216334779, 0.00220700284, 0.0109681813
   3789, 0.00243393006, -0.00186947593, 0.0109681813
   3790, -0.000690910092, 0.00305446191, 0.0109681813
   3791, -0.000485159166, -0.00377474586, 0.0109681813
   3792, 0.000876111619, 0.00152649579, 0.0109681813
   3793, -0.00160967186, -0.00190408016, 0.0109681813
   3794, -0.0010938209, -0.00245171133, 0.0109681813
   3795, -0.00175259309, 0.00184043497, 0.0109681813
   3796, -0.000186767342, 0.00261800084, 0.0109681813
   3797, 0.00215857429, 0.00178177387, 0.0109681813
   3798, -0.000160787502, -0.00287347427, 0.0109681813
   3799, 0.000860432629, 0.00251776353, 0.0109681813
   3800, 0.0028853002, -0.00150461926, 0.0109681813
   3801, -0.00282635377, 0.00239056721, 0.0109681813
   3802, 0.000548588345, 0.00327916909, 0.0109681813
   3803, -0.00103522185, 0.00252056657, 0.0109681813
   3804, 0.00283275265, 0.000586048176, 0.0109681813
   3805, 0.00215272489, -0.00154284958, 0.0109681813
   3806, 0.00333265262, -0.00193863653, 0.0109681813
   3807, 0.00355281425, -0.00108770491, 0.0109681813
   3808, 0.00359481131, -0.000145130383, 0.0109681813
   3809, -0.0023359023, -0.00183082477, 0.0109681813
   3810, 0.00306482054, -0.000248516328, 0.0109681813
   3811, 0.000667472021, 0.00288068084, 0.0109681813
   3812, 0.00104305637, 0.00307724578, 0.0109681813
   3813, -0.00083199935, -0.00185014843, 0.0109681813
   3814, -0.000604834524, 0.00196997123, 0.0109681813
   3815, -0.00259547913, 0.00179638213, 0.0109681813
   3816, 3.88241388e-05, -0.00210830895, 0.0109681813
   3817, 0.00164725259, 0.00148151908, 0.0109681813
   3818, 0.00242095604, 0.00140251254, 0.0109681813
   3819, 0.000627421017, 0.00191148254, 0.0109681813
   3820, -0.0013811196,  -0.00135007, 0.0109681813
   3821, 0.00275410013, -0.00101068977, 0.0109681813
   3822, -0.00187416759, -0.00152094779, 0.0109681813
   3823, -0.00242865551, 0.00105836208, 0.0109681813
   3824, -6.0290673e-05, 0.0021352896, 0.0109681813
   3825, 0.00257243309, -0.000391532725, 0.0109681813
   3826, -0.00263268594, -0.00146373489, 0.0109681813
   3827, 0.00191721506, -0.00118202239, 0.0109681813
   3828, -0.000580140157, -0.00244367123, 0.0109681813
   3829, -0.00201350613, 0.00129957171, 0.0109681813
   3830, 0.00106725481, -0.00164589926, 0.0109681813
   3831, 0.00114658801, 0.00117507228, 0.0109681813
   3832, 0.00190618366, 0.00112789962, 0.0109681813
   3833, 0.000366628345, 0.00123818335, 0.0109681813
   3834, 0.000416493887, 0.00231370912, 0.0109681813
   3835, -0.00103527016, -0.000848668802, 0.0109681813
   3836, 0.00296931528, 0.000166841462, 0.0109681813
   3837, 0.00151707651, -0.00142398698, 0.0109681813
   3838, -0.000801510876, 0.00128439965, 0.0109681813
   3839, -0.000209167163, -0.00161284197, 0.0109681813
   3840, -0.00296090939, -0.00114833191, 0.0109681813
   3841, 0.0024549847, -1.4813204e-05, 0.0109681813
   3842, 0.000914154225, -0.00122501259, 0.0109681813
   3843, 0.00134233665, -0.00103631616, 0.0109681813
   3844, 0.00143360544, 0.000859176042, 0.0109681813
   3845, 0.00212829164, 0.000752113643, 0.0109681813
   3846, -0.00294047943, 0.000742614502, 0.0109681813
   3847, 0.00230799569, 0.000370419933, 0.0109681813
   3848, 0.00311195711, -0.000649643189, 0.0109681813
   3849, 0.00213276432, -0.000587722694, 0.0109681813
   3850, -0.000944585889, -0.00296284794, 0.0109681813
   3851, 0.000141423341, 0.00168791867, 0.0109681813
   3852, 0.000622865162, 0.000741376076, 0.0109681813
   3853, -0.000340482773, 0.00149200519, 0.0109681813
   3854, 0.000361654878, -0.0012826228, 0.0109681813
   3855, -0.0012926287, 0.00166836032, 0.0109681813
   3856, 0.000613496988, -0.000732398708, 0.0109681813
   3857, -0.000151188229, 0.0010424651, 0.0109681813
   3858, 0.00198280136, -0.000219871872, 0.0109681813
   3859, -0.000633230025, 0.000901054882, 0.0109681813
   3860, -0.00155415211, 5.21985748e-05, 0.0109681813
   3861, -0.00214766851, -0.00102410931, 0.0109681813
   3862, -0.00245067058, 0.000644518586, 0.0109681813
   3863, 0.00155171473, -0.000442923862, 0.0109681813
   3864, 0.00107027742, 0.000601972977, 0.0109681813
   3865, -0.00152497459, -0.000917053316, 0.0109681813
   3866, -0.0010117389, 0.000809108606, 0.0109681813
   3867, -0.00268690172, -0.000761706033, 0.0109681813
   3868, -0.00312115229, -0.00178152137, 0.0109681813
   3869, -5.57922613e-06, -0.000881481101, 0.0109681813
   3870, -0.00207330636, -0.000427376159, 0.0109681813
   3871, 0.00182075496, 0.000146054736, 0.0109681813
   3872, -0.000550453085, 0.000462105003, 0.0109681813
   3873, 0.00117953774, -0.000669663481, 0.0109681813
   3874, -0.0020269223, 9.98058604e-05, 0.0109681813
   3875, -0.000749598257, -0.000406963052, 0.0109681813
   3876, 0.00116893614, 0.000262420217, 0.0109681813
   3877, 0.000619583181, 5.30813522e-05, 0.0109681813
   3878, -0.00107353542, 1.94925287e-05, 0.0109681813
   3879, -1.23417567e-05, 0.000577200612, 0.0109681813
   3880, 3.34280012e-05, 8.49908902e-05, 0.0109681813
   3881, 0.00135823153, -8.93766119e-05, 0.0109681813
   3882, 0.000321388652, -0.000485395518, 0.0109681813
   3883, -0.000523946073, -4.92745166e-05, 0.0109681813
   3884, -0.00157230778, -0.000435936701, 0.0109681813
   3885, 0.000943185936, -0.000345294422, 0.0109681813
   3886, 0.00164351484, 0.000501646835, 0.0109681813
   3887, 0.00264639547, 0.000999862212, 0.0109681813
   3888, -0.0011104648, -0.000411461981, 0.0109681813
   3889, -0.00257178117, -0.000312425283, 0.0109681813
   3890, -0.000269917189, -0.000500896305, 0.0109681813
   3891, -0.000318563427, 0.00419643195, 0.0109681813
   3892, 0.000291611359, -0.00431829831, 0.0109681813
   3893, 0.00338417524, 0.000793792715, 0.0109681813
   3894, -0.00030827726, 0.00366496085, 0.0109681813
   3895, -0.00315928599, 0.00223519979, 0.0109681813
   3896, 0.000259194087, -0.00397536671, 0.0109681813
   3897, 0.00193770218, -0.00298756175, 0.0109681813
   3898, 0.00307746138, -0.00106590847, 0.0109681813
   3899, 0.00298592844, -0.00185081188, 0.0109681813
   3900, 0.00273260451, -0.00215353072, 0.0109681813
   3901, 0.00311360625, -0.00231958134, 0.0109681813
   3902, 0.00066264387, -0.00305879372, 0.0109681813
   3903, -7.04654376e-05, -0.00386221963, 0.0109681813
   3904, 0.000867682858, 0.0033219764, 0.0109681813
   3905, -0.000261262147, 0.0031392735, 0.0109681813
   3906, -0.00109555002, 0.00297483732, 0.0109681813
   3907, -0.00307588046, -0.000184679564, 0.0109681813
   3908, -0.00321494951, -0.000911038136, 0.0109681813
   3909, -0.00203649863, -0.00218860968, 0.0109681813
   3910, -0.000316440681, -0.00343725714, 0.0109681813
   3911, 0.00252299802, -0.0012537532, 0.0109681813
   3912, 0.00131519185, -0.00208483613, 0.0109681813
   3913, 0.000341322564, -0.00258567906, 0.0109681813
   3914, 0.00173294265, -0.000813168241, 0.0109681813
   3915, 0.00230122125, -0.000936484255, 0.0109681813
   3916, 0.00267677754, -0.000736731279, 0.0109681813
   3917, 0.000259082415, 0.00274348469, 0.0109681813
   3918, 0.000575505546, -0.00184310519, 0.0109681813
   3919, -0.000623953005, 0.00253588241, 0.0109681813
   3920, -0.00151159009, 0.0022516863, 0.0109681813
   3921, -0.00250703539, 0.000170841202, 0.0109681813
   3922, -0.00128795544, -0.00168707827, 0.0109681813
   3923, 3.53105897e-05, -0.000303478009, 0.0109681813
   3924, 0.000887008209, -0.000876231119, 0.0109681813
   3925, -0.00198668684, 0.000639819016, 0.0109681813
   3926, -0.0011102251, 0.00210071378, 0.0109681813
   3927, -0.00134775729, 0.00112348737, 0.0109681813
   3928, -0.000908393471, -0.00129355956, 0.0109681813
   3929, -0.00042536456, -0.00114225002, 0.0109681813
   3930, -0.00105097017, 0.000458524708, 0.0109681813
   3931, -0.000610636838, -0.000723266741, 0.0109681813
   3932, -0.000904230517, 0.00162378035, 0.0109681813
   3933, -0.00150804105, 0.000569030643, 0.0109681813
   3934, -0.00135324989, 0.00396553334, 0.0115454542
   3935, -0.00402056053, 0.00101029815, 0.0115454542
   3936, -0.00297016394, -0.00289217359, 0.0115454542
   3937, 0.00397308171, 0.000992201152, 0.0115454542
   3938, 0.00212350115, 0.00354511268, 0.0115454542
   3939, 0.00125990773, -0.00400250824, 0.0115454542
   3940, 0.00314467889, -0.00292053982, 0.0115454542
   3941, 0.00374832447, -0.00209765113, 0.0115454542
   3942, 0.00407549227, -0.0011225834, 0.0115454542
   3943, 0.00415758137, -6.347007e-05, 0.0115454542
   3944, 0.00409602048, 0.000468003738, 0.0115454542
   3945, 0.0037879236, 0.00149980339, 0.0115454542
   3946, 0.00325157144, 0.00243436219, 0.0115454542
   3947, 0.00253152288, 0.00322010578, 0.0115454542
   3948, 0.00169254269, 0.0038232198, 0.0115454542
   3949, 0.000712110021, 0.00416869624, 0.0115454542
   3950, -0.000841098255, 0.00411218498, 0.0115454542
   3951, -0.00274003926, 0.00317171472, 0.0115454542
   3952, -0.00347115193, 0.00247505447, 0.0115454542
   3953, -0.0038807285, 0.00153199071, 0.0115454542
   3954, -0.00414161896, -0.000574599137, 0.0115454542
   3955, -0.00387396198, -0.0015894291, 0.0115454542
   3956, -0.00332311704, -0.0024855223, 0.0115454542
   3957, -0.00166725682, -0.00383298844, 0.0115454542
   3958, -0.000695951923, -0.0042049773, 0.0115454542
   3959, 0.000772389176, -0.00419611763, 0.0115454542
   3960, 0.00175150984, -0.00376692018, 0.0115454542
   3961, 0.00271001016, -0.00320286886, 0.0115454542
   3962, 0.00348136015, -0.00254004332, 0.0115454542
   3963, 0.00394045236, -0.00162366871, 0.0115454542
   3964, 0.00414883252, -0.000596157275, 0.0115454542
   3965, 0.00351941655, 0.000324701221, 0.0115454542
   3966, 0.00204495573, 0.00282008061, 0.0115454542
   3967, -0.00282244734, -0.00216782326, 0.0115454542
   3968, -0.000771973282, 0.00357665564, 0.0115454542
   3969, -0.00333736744, 0.00136134401, 0.0115454542
   3970, 0.000988309504, -0.00351155247, 0.0115454542
   3971, 0.00055882131, -0.00375104626, 0.0115454542
   3972, 0.00291620707, -0.0026352373, 0.0115454542
   3973, 0.00245204382, -0.00265190401, 0.0115454542
   3974, 0.0017081257, 0.00312953047, 0.0115454542
   3975, 0.00320142228, 0.00125144038, 0.0115454542
   3976, 0.00344620412, -0.00153000653, 0.0115454542
   3977, 0.00361137488, -0.000615609053, 0.0115454542
   3978, 0.00354529684, 0.0019814691, 0.0115454542
   3979, 0.00291160378, 0.00284737698, 0.0115454542
   3980, -0.00256794249, -0.00325510488, 0.0115454542
   3981, 0.00121839147, 0.00404197443, 0.0115454542
   3982, -0.00362852868, -0.00204763818, 0.0115454542
   3983, -0.0018484731, 0.00375401648, 0.0115454542
   3984, -0.00411584042, 0.000482196308, 0.0115454542
   3985, -0.00312830484, 0.00284483354, 0.0115454542
   3986, -0.00370325963, 0.00202818681, 0.0115454542
   3987, -0.004051005, -0.00109450193, 0.0115454542
   3988, 0.00223719073, -0.00349180237, 0.0115454542
   3989, -0.00119344355, -0.00404366432, 0.0115454542
   3990, 0.000197806672, 0.00421733828, 0.0115454542
   3991, -0.00212981319, -0.00356914126, 0.0115454542
   3992, -0.000204375261, -0.00430176966, 0.0115454542
   3993, -0.00416028267, -4.47708662e-05, 0.0115454542
   3994, -0.00230909651, 0.00348860933, 0.0115454542
   3995, 0.0011545578, -0.0027996928, 0.0115454542
   3996, 0.00156899134, 0.00246603554, 0.0115454542
   3997, -0.00354788383, 0.000372098963, 0.0115454542
   3998, -0.00166805799, 0.00325595844, 0.0115454542
   3999, -0.00212933798, -0.00286842952, 0.0115454542
   4000, -0.0033795936, -0.00140367029, 0.0115454542
   4001, -0.00245898636, 0.00267885718, 0.0115454542
   4002, -0.00356690213, -0.0010022528, 0.0115454542
   4003, 0.00238249777, 0.00247614784, 0.0115454542
   4004, -0.00320774689, 0.00183734798, 0.0115454542
   4005, 0.00145717501, -0.00326528074, 0.0115454542
   4006, -0.00207244186, 0.0029983623, 0.0115454542
   4007, -0.00130714767, -0.00338947773, 0.0115454542
   4008, 0.000140731077, 0.00371151417, 0.0115454542
   4009, -0.00172811642, -0.0031537991, 0.0115454542
   4010, -0.00362091744, -0.000560386456, 0.0115454542
   4011, -0.00360488612, -0.000101052217, 0.0115454542
   4012, 0.00137465156, 0.00340616587, 0.0115454542
   4013, 0.00296684611, 0.0016876508, 0.0115454542
   4014, -0.00313480734, -0.000599588093, 0.0115454542
   4015, -0.00148921448, 0.00282661617, 0.0115454542
   4016, -0.00301071326, 0.000265140668, 0.0115454542
   4017, -0.00171224575, -0.00250490871, 0.0115454542
   4018, -0.00182060245, 0.00256777345, 0.0115454542
   4019, -0.00135453546, -0.0027738472, 0.0115454542
   4020,  0.001870826,  0.002135196, 0.0115454542
   4021, -0.00282380497, 0.00123672944, 0.0115454542
   4022, 0.00205148384, -0.00223219814, 0.0115454542
   4023, 0.00100395468, 0.00362518849, 0.0115454542
   4024, 0.000152082255, 0.00321342587, 0.0115454542
   4025, 0.000156014619, -0.00336919143, 0.0115454542
   4026, -0.00249434332, -0.00253175036, 0.0115454542
   4027, -0.00122060697, 0.00345152454, 0.0115454542
   4028, -0.00346104824, 0.000866823015, 0.0115454542
   4029, 0.00128685881, 0.00278062373, 0.0115454542
   4030, 0.00161891407, -0.00253219646, 0.0115454542
   4031, -0.000900272455, -0.0035955233, 0.0115454542
   4032, -0.0012980618, -0.00218321267, 0.0115454542
   4033, -0.00134095387, 0.00252467697, 0.0115454542
   4034, 0.00269140187, 0.00209695008, 0.0115454542
   4035, 0.00137190078, 0.00182387407, 0.0115454542
   4036, -0.000564105227, -0.00319002755, 0.0115454542
   4037, 0.00110149034, 0.00216783886, 0.0115454542
   4038, 0.000847242423, -0.00232953043, 0.0115454542
   4039, 0.00174873474, -0.00182702171, 0.0115454542
   4040, 0.00058890396, 0.00371043221, 0.0115454542
   4041, -0.00216334779, 0.00220700284, 0.0115454542
   4042, 0.00243393006, -0.00186947593, 0.0115454542
   4043, -0.000690910092, 0.00305446191, 0.0115454542
   4044, -0.000485159166, -0.00377474586, 0.0115454542
   4045, 0.000876111619, 0.00152649579, 0.0115454542
   4046, -0.00160967186, -0.00190408016, 0.0115454542
   4047, -0.0010938209, -0.00245171133, 0.0115454542
   4048, -0.00175259309, 0.00184043497, 0.0115454542
   4049, -0.000186767342, 0.00261800084, 0.0115454542
   4050, 0.00215857429, 0.00178177387, 0.0115454542
   4051, -0.000160787502, -0.00287347427, 0.0115454542
   4052, 0.000860432629, 0.00251776353, 0.0115454542
   4053, 0.0028853002, -0.00150461926, 0.0115454542
   4054, -0.00282635377, 0.00239056721, 0.0115454542
   4055, 0.000548588345, 0.00327916909, 0.0115454542
   4056, -0.00103522185, 0.00252056657, 0.0115454542
   4057, 0.00283275265, 0.000586048176, 0.0115454542
   4058, 0.00215272489, -0.00154284958, 0.0115454542
   4059, 0.00333265262, -0.00193863653, 0.0115454542
   4060, 0.00355281425, -0.00108770491, 0.0115454542
   4061, 0.00359481131, -0.000145130383, 0.0115454542
   4062, -0.0023359023, -0.00183082477, 0.0115454542
   4063, 0.00306482054, -0.000248516328, 0.0115454542
   4064, 0.000667472021, 0.00288068084, 0.0115454542
   4065, 0.00104305637, 0.00307724578, 0.0115454542
   4066, -0.00083199935, -0.00185014843, 0.0115454542
   4067, -0.000604834524, 0.00196997123, 0.0115454542
   4068, -0.00259547913, 0.00179638213, 0.0115454542
   4069, 3.88241388e-05, -0.00210830895, 0.0115454542
   4070, 0.00164725259, 0.00148151908, 0.0115454542
   4071, 0.00242095604, 0.00140251254, 0.0115454542
   4072, 0.000627421017, 0.00191148254, 0.0115454542
   4073, -0.0013811196,  -0.00135007, 0.0115454542
   4074, 0.00275410013, -0.00101068977, 0.0115454542
   4075, -0.00187416759, -0.00152094779, 0.0115454542
   4076, -0.00242865551, 0.00105836208, 0.0115454542
   4077, -6.0290673e-05, 0.0021352896, 0.0115454542
   4078, 0.00257243309, -0.000391532725, 0.0115454542
   4079, -0.00263268594, -0.00146373489, 0.0115454542
   4080, 0.00191721506, -0.00118202239, 0.0115454542
   4081, -0.000580140157, -0.00244367123, 0.0115454542
   4082, -0.00201350613, 0.00129957171, 0.0115454542
   4083, 0.00106725481, -0.00164589926, 0.0115454542
   4084, 0.00114658801, 0.00117507228, 0.0115454542
   4085, 0.00190618366, 0.00112789962, 0.0115454542
   4086, 0.000366628345, 0.00123818335, 0.0115454542
   4087, 0.000416493887, 0.00231370912, 0.0115454542
   4088, -0.00103527016, -0.000848668802, 0.0115454542
   4089, 0.00296931528, 0.000166841462, 0.0115454542
   4090, 0.00151707651, -0.00142398698, 0.0115454542
   4091, -0.000801510876, 0.00128439965, 0.0115454542
   4092, -0.000209167163, -0.00161284197, 0.0115454542
   4093, -0.00296090939, -0.00114833191, 0.0115454542
   4094, 0.0024549847, -1.4813204e-05, 0.0115454542
   4095, 0.000914154225, -0.00122501259, 0.0115454542
   4096, 0.00134233665, -0.00103631616, 0.0115454542
   4097, 0.00143360544, 0.000859176042, 0.0115454542
   4098, 0.00212829164, 0.000752113643, 0.0115454542
   4099, -0.00294047943, 0.000742614502, 0.0115454542
   4100, 0.00230799569, 0.000370419933, 0.0115454542
   4101, 0.00311195711, -0.000649643189, 0.0115454542
   4102, 0.00213276432, -0.000587722694, 0.0115454542
   4103, -0.000944585889, -0.00296284794, 0.0115454542
   4104, 0.000141423341, 0.00168791867, 0.0115454542
   4105, 0.000622865162, 0.000741376076, 0.0115454542
   4106, -0.000340482773, 0.00149200519, 0.0115454542
   4107, 0.000361654878, -0.0012826228, 0.0115454542
   4108, -0.0012926287, 0.00166836032, 0.0115454542
   4109, 0.000613496988, -0.000732398708, 0.0115454542
   4110, -0.000151188229, 0.0010424651, 0.0115454542
   4111, 0.00198280136, -0.000219871872, 0.0115454542
   4112, -0.000633230025, 0.000901054882, 0.0115454542
   4113, -0.00155415211, 5.21985748e-05, 0.0115454542
   4114, -0.00214766851, -0.00102410931, 0.0115454542
   4115, -0.00245067058, 0.000644518586, 0.0115454542
   4116, 0.00155171473, -0.000442923862, 0.0115454542
   4117, 0.00107027742, 0.000601972977, 0.0115454542
   4118, -0.00152497459, -0.000917053316, 0.0115454542
   4119, -0.0010117389, 0.000809108606, 0.0115454542
   4120, -0.00268690172, -0.000761706033, 0.0115454542
   4121, -0.00312115229, -0.00178152137, 0.0115454542
   4122, -5.57922613e-06, -0.000881481101, 0.0115454542
   4123, -0.00207330636, -0.000427376159, 0.0115454542
   4124, 0.00182075496, 0.000146054736, 0.0115454542
   4125, -0.000550453085, 0.000462105003, 0.0115454542
   4126, 0.00117953774, -0.000669663481, 0.0115454542
   4127, -0.0020269223, 9.98058604e-05, 0.0115454542
   4128, -0.000749598257, -0.000406963052, 0.0115454542
   4129, 0.00116893614, 0.000262420217, 0.0115454542
   4130, 0.000619583181, 5.30813522e-05, 0.0115454542
   4131, -0.00107353542, 1.94925287e-05, 0.0115454542
   4132, -1.23417567e-05, 0.000577200612, 0.0115454542
   4133, 3.34280012e-05, 8.49908902e-05, 0.0115454542
   4134, 0.00135823153, -8.93766119e-05, 0.0115454542
   4135, 0.000321388652, -0.000485395518, 0.0115454542
   4136, -0.000523946073, -4.92745166e-05, 0.0115454542
   4137, -0.00157230778, -0.000435936701, 0.0115454542
   4138, 0.000943185936, -0.000345294422, 0.0115454542
   4139, 0.00164351484, 0.000501646835, 0.0115454542
   4140, 0.00264639547, 0.000999862212, 0.0115454542
   4141, -0.0011104648, -0.000411461981, 0.0115454542
   4142, -0.00257178117, -0.000312425283, 0.0115454542
   4143, -0.000269917189, -0.000500896305, 0.0115454542
   4144, -0.000318563427, 0.00419643195, 0.0115454542
   4145, 0.000291611359, -0.00431829831, 0.0115454542
   4146, 0.00338417524, 0.000793792715, 0.0115454542
   4147, -0.00030827726, 0.00366496085, 0.0115454542
   4148, -0.00315928599, 0.00223519979, 0.0115454542
   4149, 0.000259194087, -0.00397536671, 0.0115454542
   4150, 0.00193770218, -0.00298756175, 0.0115454542
   4151, 0.00307746138, -0.00106590847, 0.0115454542
   4152, 0.00298592844, -0.00185081188, 0.0115454542
   4153, 0.00273260451, -0.00215353072, 0.0115454542
   4154, 0.00311360625, -0.00231958134, 0.0115454542
   4155, 0.00066264387, -0.00305879372, 0.0115454542
   4156, -7.04654376e-05, -0.00386221963, 0.0115454542
   4157, 0.000867682858, 0.0033219764, 0.0115454542
   4158, -0.000261262147, 0.0031392735, 0.0115454542
   4159, -0.00109555002, 0.00297483732, 0.0115454542
   4160, -0.00307588046, -0.000184679564, 0.0115454542
   4161, -0.00321494951, -0.000911038136, 0.0115454542
   4162, -0.00203649863, -0.00218860968, 0.0115454542
   4163, -0.000316440681, -0.00343725714, 0.0115454542
   4164, 0.00252299802, -0.0012537532, 0.0115454542
   4165, 0.00131519185, -0.00208483613, 0.0115454542
   4166, 0.000341322564, -0.00258567906, 0.0115454542
   4167, 0.00173294265, -0.000813168241, 0.0115454542
   4168, 0.00230122125, -0.000936484255, 0.0115454542
   4169, 0.00267677754, -0.000736731279, 0.0115454542
   4170, 0.000259082415, 0.00274348469, 0.0115454542
   4171, 0.000575505546, -0.00184310519, 0.0115454542
   4172, -0.000623953005, 0.00253588241, 0.0115454542
   4173, -0.00151159009, 0.0022516863, 0.0115454542
   4174, -0.00250703539, 0.000170841202, 0.0115454542
   4175, -0.00128795544, -0.00168707827, 0.0115454542
   4176, 3.53105897e-05, -0.000303478009, 0.0115454542
   4177, 0.000887008209, -0.000876231119, 0.0115454542
   4178, -0.00198668684, 0.000639819016, 0.0115454542
   4179, -0.0011102251, 0.00210071378, 0.0115454542
   4180, -0.00134775729, 0.00112348737, 0.0115454542
   4181, -0.000908393471, -0.00129355956, 0.0115454542
   4182, -0.00042536456, -0.00114225002, 0.0115454542
   4183, -0.00105097017, 0.000458524708, 0.0115454542
   4184, -0.000610636838, -0.000723266741, 0.0115454542
   4185, -0.000904230517, 0.00162378035, 0.0115454542
   4186, -0.00150804105, 0.000569030643, 0.0115454542
   4187, -0.00135324989, 0.00396553334,  0.012122727
   4188, -0.00402056053, 0.00101029815,  0.012122727
   4189, -0.00297016394, -0.00289217359,  0.012122727
   4190, 0.00397308171, 0.000992201152,  0.012122727
   4191, 0.00212350115, 0.00354511268,  0.012122727
   4192, 0.00125990773, -0.00400250824,  0.012122727
   4193, 0.00314467889, -0.00292053982,  0.012122727
   4194, 0.00374832447, -0.00209765113,  0.012122727
   4195, 0.00407549227, -0.0011225834,  0.012122727
   4196, 0.00415758137, -6.347007e-05,  0.012122727
   4197, 0.00409602048, 0.000468003738,  0.012122727
   4198, 0.0037879236, 0.00149980339,  0.012122727
   4199, 0.00325157144, 0.00243436219,  0.012122727
   4200, 0.00253152288, 0.00322010578,  0.012122727
   4201, 0.00169254269, 0.0038232198,  0.012122727
   4202, 0.000712110021, 0.00416869624,  0.012122727
   4203, -0.000841098255, 0.00411218498,  0.012122727
   4204, -0.00274003926, 0.00317171472,  0.012122727
   4205, -0.00347115193, 0.00247505447,  0.012122727
   4206, -0.0038807285, 0.00153199071,  0.012122727
   4207, -0.00414161896, -0.000574599137,  0.012122727
   4208, -0.00387396198, -0.0015894291,  0.012122727
   4209, -0.00332311704, -0.0024855223,  0.012122727
   4210, -0.00166725682, -0.00383298844,  0.012122727
   4211, -0.000695951923, -0.0042049773,  0.012122727
   4212, 0.000772389176, -0.00419611763,  0.012122727
   4213, 0.00175150984, -0.00376692018,  0.012122727
   4214, 0.00271001016, -0.00320286886,  0.012122727
   4215, 0.00348136015, -0.00254004332,  0.012122727
   4216, 0.00394045236, -0.00162366871,  0.012122727
   4217, 0.00414883252, -0.000596157275,  0.012122727
   4218, 0.00351941655, 0.000324701221,  0.012122727
   4219, 0.00204495573, 0.00282008061,  0.012122727
   4220, -0.00282244734, -0.00216782326,  0.012122727
   4221, -0.000771973282, 0.00357665564,  0.012122727
   4222, -0.00333736744, 0.00136134401,  0.012122727
   4223, 0.000988309504, -0.00351155247,  0.012122727
   4224, 0.00055882131, -0.00375104626,  0.012122727
   4225, 0.00291620707, -0.0026352373,  0.012122727
   4226, 0.00245204382, -0.00265190401,  0.012122727
   4227, 0.0017081257, 0.00312953047,  0.012122727
   4228, 0.00320142228, 0.00125144038,  0.012122727
   4229, 0.00344620412, -0.00153000653,  0.012122727
   4230, 0.00361137488, -0.000615609053,  0.012122727
   4231, 0.00354529684, 0.0019814691,  0.012122727
   4232, 0.00291160378, 0.00284737698,  0.012122727
   4233, -0.00256794249, -0.00325510488,  0.012122727
   4234, 0.00121839147, 0.00404197443,  0.012122727
   4235, -0.00362852868, -0.00204763818,  0.012122727
   4236, -0.0018484731, 0.00375401648,  0.012122727
   4237, -0.00411584042, 0.000482196308,  0.012122727
   4238, -0.00312830484, 0.00284483354,  0.012122727
   4239, -0.00370325963, 0.00202818681,  0.012122727
   4240, -0.004051005, -0.00109450193,  0.012122727
   4241, 0.00223719073, -0.00349180237,  0.012122727
   4242, -0.00119344355, -0.00404366432,  0.012122727
   4243, 0.000197806672, 0.00421733828,  0.012122727
   4244, -0.00212981319, -0.00356914126,  0.012122727
   4245, -0.000204375261, -0.00430176966,  0.012122727
   4246, -0.00416028267, -4.47708662e-05,  0.012122727
   4247, -0.00230909651, 0.00348860933,  0.012122727
   4248, 0.0011545578, -0.0027996928,  0.012122727
   4249, 0.00156899134, 0.00246603554,  0.012122727
   4250, -0.00354788383, 0.000372098963,  0.012122727
   4251, -0.00166805799, 0.00325595844,  0.012122727
   4252, -0.00212933798, -0.00286842952,  0.012122727
   4253, -0.0033795936, -0.00140367029,  0.012122727
   4254, -0.00245898636, 0.00267885718,  0.012122727
   4255, -0.00356690213, -0.0010022528,  0.012122727
   4256, 0.00238249777, 0.00247614784,  0.012122727
   4257, -0.00320774689, 0.00183734798,  0.012122727
   4258, 0.00145717501, -0.00326528074,  0.012122727
   4259, -0.00207244186, 0.0029983623,  0.012122727
   4260, -0.00130714767, -0.00338947773,  0.012122727
   4261, 0.000140731077, 0.00371151417,  0.012122727
   4262, -0.00172811642, -0.0031537991,  0.012122727
   4263, -0.00362091744, -0.000560386456,  0.012122727
   4264, -0.00360488612, -0.000101052217,  0.012122727
   4265, 0.00137465156, 0.00340616587,  0.012122727
   4266, 0.00296684611, 0.0016876508,  0.012122727
   4267, -0.00313480734, -0.000599588093,  0.012122727
   4268, -0.00148921448, 0.00282661617,  0.012122727
   4269, -0.00301071326, 0.000265140668,  0.012122727
   4270, -0.00171224575, -0.00250490871,  0.012122727
   4271, -0.00182060245, 0.00256777345,  0.012122727
   4272, -0.00135453546, -0.0027738472,  0.012122727
   4273,  0.001870826,  0.002135196,  0.012122727
   4274, -0.00282380497, 0.00123672944,  0.012122727
   4275, 0.00205148384, -0.00223219814,  0.012122727
   4276, 0.00100395468, 0.00362518849,  0.012122727
   4277, 0.000152082255, 0.00321342587,  0.012122727
   4278, 0.000156014619, -0.00336919143,  0.012122727
   4279, -0.00249434332, -0.00253175036,  0.012122727
   4280, -0.00122060697, 0.00345152454,  0.012122727
   4281, -0.00346104824, 0.000866823015,  0.012122727
   4282, 0.00128685881, 0.00278062373,  0.012122727
   4283, 0.00161891407, -0.00253219646,  0.012122727
   4284, -0.000900272455, -0.0035955233,  0.012122727
   4285, -0.0012980618, -0.00218321267,  0.012122727
   4286, -0.00134095387, 0.00252467697,  0.012122727
   4287, 0.00269140187, 0.00209695008,  0.012122727
   4288, 0.00137190078, 0.00182387407,  0.012122727
   4289, -0.000564105227, -0.00319002755,  0.012122727
   4290, 0.00110149034, 0.00216783886,  0.012122727
   4291, 0.000847242423, -0.00232953043,  0.012122727
   4292, 0.00174873474, -0.00182702171,  0.012122727
   4293, 0.00058890396, 0.00371043221,  0.012122727
   4294, -0.00216334779, 0.00220700284,  0.012122727
   4295, 0.00243393006, -0.00186947593,  0.012122727
   4296, -0.000690910092, 0.00305446191,  0.012122727
   4297, -0.000485159166, -0.00377474586,  0.012122727
   4298, 0.000876111619, 0.00152649579,  0.012122727
   4299, -0.00160967186, -0.00190408016,  0.012122727
   4300, -0.0010938209, -0.00245171133,  0.012122727
   4301, -0.00175259309, 0.00184043497,  0.012122727
   4302, -0.000186767342, 0.00261800084,  0.012122727
   4303, 0.00215857429, 0.00178177387,  0.012122727
   4304, -0.000160787502, -0.00287347427,  0.012122727
   4305, 0.000860432629, 0.00251776353,  0.012122727
   4306, 0.0028853002, -0.00150461926,  0.012122727
   4307, -0.00282635377, 0.00239056721,  0.012122727
   4308, 0.000548588345, 0.00327916909,  0.012122727
   4309, -0.00103522185, 0.00252056657,  0.012122727
   4310, 0.00283275265, 0.000586048176,  0.012122727
   4311, 0.00215272489, -0.00154284958,  0.012122727
   4312, 0.00333265262, -0.00193863653,  0.012122727
   4313, 0.00355281425, -0.00108770491,  0.012122727
   4314, 0.00359481131, -0.000145130383,  0.012122727
   4315, -0.0023359023, -0.00183082477,  0.012122727
   4316, 0.00306482054, -0.000248516328,  0.012122727
   4317, 0.000667472021, 0.00288068084,  0.012122727
   4318, 0.00104305637, 0.00307724578,  0.012122727
   4319, -0.00083199935, -0.00185014843,  0.012122727
   4320, -0.000604834524, 0.00196997123,  0.012122727
   4321, -0.00259547913, 0.00179638213,  0.012122727
   4322, 3.88241388e-05, -0.00210830895,  0.012122727
   4323, 0.00164725259, 0.00148151908,  0.012122727
   4324, 0.00242095604, 0.00140251254,  0.012122727
   4325, 0.000627421017, 0.00191148254,  0.012122727
   4326, -0.0013811196,  -0.00135007,  0.012122727
   4327, 0.00275410013, -0.00101068977,  0.012122727
   4328, -0.00187416759, -0.00152094779,  0.012122727
   4329, -0.00242865551, 0.00105836208,  0.012122727
   4330, -6.0290673e-05, 0.0021352896,  0.012122727
   4331, 0.00257243309, -0.000391532725,  0.012122727
   4332, -0.00263268594, -0.00146373489,  0.012122727
   4333, 0.00191721506, -0.00118202239,  0.012122727
   4334, -0.000580140157, -0.00244367123,  0.012122727
   4335, -0.00201350613, 0.00129957171,  0.012122727
   4336, 0.00106725481, -0.00164589926,  0.012122727
   4337, 0.00114658801, 0.00117507228,  0.012122727
   4338, 0.00190618366, 0.00112789962,  0.012122727
   4339, 0.000366628345, 0.00123818335,  0.012122727
   4340, 0.000416493887, 0.00231370912,  0.012122727
   4341, -0.00103527016, -0.000848668802,  0.012122727
   4342, 0.00296931528, 0.000166841462,  0.012122727
   4343, 0.00151707651, -0.00142398698,  0.012122727
   4344, -0.000801510876, 0.00128439965,  0.012122727
   4345, -0.000209167163, -0.00161284197,  0.012122727
   4346, -0.00296090939, -0.00114833191,  0.012122727
   4347, 0.0024549847, -1.4813204e-05,  0.012122727
   4348, 0.000914154225, -0.00122501259,  0.012122727
   4349, 0.00134233665, -0.00103631616,  0.012122727
   4350, 0.00143360544, 0.000859176042,  0.012122727
   4351, 0.00212829164, 0.000752113643,  0.012122727
   4352, -0.00294047943, 0.000742614502,  0.012122727
   4353, 0.00230799569, 0.000370419933,  0.012122727
   4354, 0.00311195711, -0.000649643189,  0.012122727
   4355, 0.00213276432, -0.000587722694,  0.012122727
   4356, -0.000944585889, -0.00296284794,  0.012122727
   4357, 0.000141423341, 0.00168791867,  0.012122727
   4358, 0.000622865162, 0.000741376076,  0.012122727
   4359, -0.000340482773, 0.00149200519,  0.012122727
   4360, 0.000361654878, -0.0012826228,  0.012122727
   4361, -0.0012926287, 0.00166836032,  0.012122727
   4362, 0.000613496988, -0.000732398708,  0.012122727
   4363, -0.000151188229, 0.0010424651,  0.012122727
   4364, 0.00198280136, -0.000219871872,  0.012122727
   4365, -0.000633230025, 0.000901054882,  0.012122727
   4366, -0.00155415211, 5.21985748e-05,  0.012122727
   4367, -0.00214766851, -0.00102410931,  0.012122727
   4368, -0.00245067058, 0.000644518586,  0.012122727
   4369, 0.00155171473, -0.000442923862,  0.012122727
   4370, 0.00107027742, 0.000601972977,  0.012122727
   4371, -0.00152497459, -0.000917053316,  0.012122727
   4372, -0.0010117389, 0.000809108606,  0.012122727
   4373, -0.00268690172, -0.000761706033,  0.012122727
   4374, -0.00312115229, -0.00178152137,  0.012122727
   4375, -5.57922613e-06, -0.000881481101,  0.012122727
   4376, -0.00207330636, -0.000427376159,  0.012122727
   4377, 0.00182075496, 0.000146054736,  0.012122727
   4378, -0.000550453085, 0.000462105003,  0.012122727
   4379, 0.00117953774, -0.000669663481,  0.012122727
   4380, -0.0020269223, 9.98058604e-05,  0.012122727
   4381, -0.000749598257, -0.000406963052,  0.012122727
   4382, 0.00116893614, 0.000262420217,  0.012122727
   4383, 0.000619583181, 5.30813522e-05,  0.012122727
   4384, -0.00107353542, 1.94925287e-05,  0.012122727
   4385, -1.23417567e-05, 0.000577200612,  0.012122727
   4386, 3.34280012e-05, 8.49908902e-05,  0.012122727
   4387, 0.00135823153, -8.93766119e-05,  0.012122727
   4388, 0.000321388652, -0.000485395518,  0.012122727
   4389, -0.000523946073, -4.92745166e-05,  0.012122727
   4390, -0.00157230778, -0.000435936701,  0.012122727
   4391, 0.000943185936, -0.000345294422,  0.012122727
   4392, 0.00164351484, 0.000501646835,  0.012122727
   4393, 0.00264639547, 0.000999862212,  0.012122727
   4394, -0.0011104648, -0.000411461981,  0.012122727
   4395, -0.00257178117, -0.000312425283,  0.012122727
   4396, -0.000269917189, -0.000500896305,  0.012122727
   4397, -0.000318563427, 0.00419643195,  0.012122727
   4398, 0.000291611359, -0.00431829831,  0.012122727
   4399, 0.00338417524, 0.000793792715,  0.012122727
   4400, -0.00030827726, 0.00366496085,  0.012122727
   4401, -0.00315928599, 0.00223519979,  0.012122727
   4402, 0.000259194087, -0.00397536671,  0.012122727
   4403, 0.00193770218, -0.00298756175,  0.012122727
   4404, 0.00307746138, -0.00106590847,  0.012122727
   4405, 0.00298592844, -0.00185081188,  0.012122727
   4406, 0.00273260451, -0.00215353072,  0.012122727
   4407, 0.00311360625, -0.00231958134,  0.012122727
   4408, 0.00066264387, -0.00305879372,  0.012122727
   4409, -7.04654376e-05, -0.00386221963,  0.012122727
   4410, 0.000867682858, 0.0033219764,  0.012122727
   4411, -0.000261262147, 0.0031392735,  0.012122727
   4412, -0.00109555002, 0.00297483732,  0.012122727
   4413, -0.00307588046, -0.000184679564,  0.012122727
   4414, -0.00321494951, -0.000911038136,  0.012122727
   4415, -0.00203649863, -0.00218860968,  0.012122727
   4416, -0.000316440681, -0.00343725714,  0.012122727
   4417, 0.00252299802, -0.0012537532,  0.012122727
   4418, 0.00131519185, -0.00208483613,  0.012122727
   4419, 0.000341322564, -0.00258567906,  0.012122727
   4420, 0.00173294265, -0.000813168241,  0.012122727
   4421, 0.00230122125, -0.000936484255,  0.012122727
   4422, 0.00267677754, -0.000736731279,  0.012122727
   4423, 0.000259082415, 0.00274348469,  0.012122727
   4424, 0.000575505546, -0.00184310519,  0.012122727
   4425, -0.000623953005, 0.00253588241,  0.012122727
   4426, -0.00151159009, 0.0022516863,  0.012122727
   4427, -0.00250703539, 0.000170841202,  0.012122727
   4428, -0.00128795544, -0.00168707827,  0.012122727
   4429, 3.53105897e-05, -0.000303478009,  0.012122727
   4430, 0.000887008209, -0.000876231119,  0.012122727
   4431, -0.00198668684, 0.000639819016,  0.012122727
   4432, -0.0011102251, 0.00210071378,  0.012122727
   4433, -0.00134775729, 0.00112348737,  0.012122727
   4434, -0.000908393471, -0.00129355956,  0.012122727
   4435, -0.00042536456, -0.00114225002,  0.012122727
   4436, -0.00105097017, 0.000458524708,  0.012122727
   4437, -0.000610636838, -0.000723266741,  0.012122727
   4438, -0.000904230517, 0.00162378035,  0.012122727
   4439, -0.00150804105, 0.000569030643,  0.012122727
   4440, -0.00135324989, 0.00396553334, 0.00577272708
   4441, -0.00402056053, 0.00101029815, 0.00577272708
   4442, -0.00297016394, -0.00289217359, 0.00577272708
   4443, 0.00397308171, 0.000992201152, 0.00577272708
   4444, 0.00212350115, 0.00354511268, 0.00577272708
   4445, 0.00125990773, -0.00400250824, 0.00577272708
   4446, 0.00314467889, -0.00292053982, 0.00577272708
   4447, 0.00374832447, -0.00209765113, 0.00577272708
   4448, 0.00407549227, -0.0011225834, 0.00577272708
   4449, 0.00415758137, -6.347007e-05, 0.00577272708
   4450, 0.00409602048, 0.000468003738, 0.00577272708
   4451, 0.0037879236, 0.00149980339, 0.00577272708
   4452, 0.00325157144, 0.00243436219, 0.00577272708
   4453, 0.00253152288, 0.00322010578, 0.00577272708
   4454, 0.00169254269, 0.0038232198, 0.00577272708
   4455, 0.000712110021, 0.00416869624, 0.00577272708
   4456, -0.000841098255, 0.00411218498, 0.00577272708
   4457, -0.00274003926, 0.00317171472, 0.00577272708
   4458, -0.00347115193, 0.00247505447, 0.00577272708
   4459, -0.0038807285, 0.00153199071, 0.00577272708
   4460, -0.00414161896, -0.000574599137, 0.00577272708
   4461, -0.00387396198, -0.0015894291, 0.00577272708
   4462, -0.00332311704, -0.0024855223, 0.00577272708
   4463, -0.00166725682, -0.00383298844, 0.00577272708
   4464, -0.000695951923, -0.0042049773, 0.00577272708
   4465, 0.000772389176, -0.00419611763, 0.00577272708
   4466, 0.00175150984, -0.00376692018, 0.00577272708
   4467, 0.00271001016, -0.00320286886, 0.00577272708
   4468, 0.00348136015, -0.00254004332, 0.00577272708
   4469, 0.00394045236, -0.00162366871, 0.00577272708
   4470, 0.00414883252, -0.000596157275, 0.00577272708
   4471, 0.00351941655, 0.000324701221, 0.00577272708
   4472, 0.00204495573, 0.00282008061, 0.00577272708
   4473, -0.00282244734, -0.00216782326, 0.00577272708
   4474, -0.000771973282, 0.00357665564, 0.00577272708
   4475, -0.00333736744, 0.00136134401, 0.00577272708
   4476, 0.000988309504, -0.00351155247, 0.00577272708
   4477, 0.00055882131, -0.00375104626, 0.00577272708
   4478, 0.00291620707, -0.0026352373, 0.00577272708
   4479, 0.00245204382, -0.00265190401, 0.00577272708
   4480, 0.0017081257, 0.00312953047, 0.00577272708
   4481, 0.00320142228, 0.00125144038, 0.00577272708
   4482, 0.00344620412, -0.00153000653, 0.00577272708
   4483, 0.00361137488, -0.000615609053, 0.00577272708
   4484, 0.00354529684, 0.0019814691, 0.00577272708
   4485, 0.00291160378, 0.00284737698, 0.00577272708
   4486, -0.00256794249, -0.00325510488, 0.00577272708
   4487, 0.00121839147, 0.00404197443, 0.00577272708
   4488, -0.00362852868, -0.00204763818, 0.00577272708
   4489, -0.0018484731, 0.00375401648, 0.00577272708
   4490, -0.00411584042, 0.000482196308, 0.00577272708
   4491, -0.00312830484, 0.00284483354, 0.00577272708
   4492, -0.00370325963, 0.00202818681, 0.00577272708
   4493, -0.004051005, -0.00109450193, 0.00577272708
   4494, 0.00223719073, -0.00349180237, 0.00577272708
   4495, -0.00119344355, -0.00404366432, 0.00577272708
   4496, 0.000197806672, 0.00421733828, 0.00577272708
   4497, -0.00212981319, -0.00356914126, 0.00577272708
   4498, -0.000204375261, -0.00430176966, 0.00577272708
   4499, -0.00416028267, -4.47708662e-05, 0.00577272708
   4500, -0.00230909651, 0.00348860933, 0.00577272708
   4501, 0.0011545578, -0.0027996928, 0.00577272708
   4502, 0.00156899134, 0.00246603554, 0.00577272708
   4503, -0.00354788383, 0.000372098963, 0.00577272708
   4504, -0.00166805799, 0.00325595844, 0.00577272708
   4505, -0.00212933798, -0.00286842952, 0.00577272708
   4506, -0.0033795936, -0.00140367029, 0.00577272708
   4507, -0.00245898636, 0.00267885718, 0.00577272708
   4508, -0.00356690213, -0.0010022528, 0.00577272708
   4509, 0.00238249777, 0.00247614784, 0.00577272708
   4510, -0.00320774689, 0.00183734798, 0.00577272708
   4511, 0.00145717501, -0.00326528074, 0.00577272708
   4512, -0.00207244186, 0.0029983623, 0.00577272708
   4513, -0.00130714767, -0.00338947773, 0.00577272708
   4514, 0.000140731077, 0.00371151417, 0.00577272708
   4515, -0.00172811642, -0.0031537991, 0.00577272708
   4516, -0.00362091744, -0.000560386456, 0.00577272708
   4517, -0.00360488612, -0.000101052217, 0.00577272708
   4518, 0.00137465156, 0.00340616587, 0.00577272708
   4519, 0.00296684611, 0.0016876508, 0.00577272708
   4520, -0.00313480734, -0.000599588093, 0.00577272708
   4521, -0.00148921448, 0.00282661617, 0.00577272708
   4522, -0.00301071326, 0.000265140668, 0.00577272708
   4523, -0.00171224575, -0.00250490871, 0.00577272708
   4524, -0.00182060245, 0.00256777345, 0.00577272708
   4525, -0.00135453546, -0.0027738472, 0.00577272708
   4526,  0.001870826,  0.002135196, 0.00577272708
   4527, -0.00282380497, 0.00123672944, 0.00577272708
   4528, 0.00205148384, -0.00223219814, 0.00577272708
   4529, 0.00100395468, 0.00362518849, 0.00577272708
   4530, 0.000152082255, 0.00321342587, 0.00577272708
   4531, 0.000156014619, -0.00336919143, 0.00577272708
   4532, -0.00249434332, -0.00253175036, 0.00577272708
   4533, -0.00122060697, 0.00345152454, 0.00577272708
   4534, -0.00346104824, 0.000866823015, 0.00577272708
   4535, 0.00128685881, 0.00278062373, 0.00577272708
   4536, 0.00161891407, -0.00253219646, 0.00577272708
   4537, -0.000900272455, -0.0035955233, 0.00577272708
   4538, -0.0012980618, -0.00218321267, 0.00577272708
   4539, -0.00134095387, 0.00252467697, 0.00577272708
   4540, 0.00269140187, 0.00209695008, 0.00577272708
   4541, 0.00137190078, 0.00182387407, 0.00577272708
   4542, -0.000564105227, -0.00319002755, 0.00577272708
   4543, 0.00110149034, 0.00216783886, 0.00577272708
   4544, 0.000847242423, -0.00232953043, 0.00577272708
   4545, 0.00174873474, -0.00182702171, 0.00577272708
   4546, 0.00058890396, 0.00371043221, 0.00577272708
   4547, -0.00216334779, 0.00220700284, 0.00577272708
   4548, 0.00243393006, -0.00186947593, 0.00577272708
   4549, -0.000690910092, 0.00305446191, 0.00577272708
   4550, -0.000485159166, -0.00377474586, 0.00577272708
   4551, 0.000876111619, 0.00152649579, 0.00577272708
   4552, -0.00160967186, -0.00190408016, 0.00577272708
   4553, -0.0010938209, -0.00245171133, 0.00577272708
   4554, -0.00175259309, 0.00184043497, 0.00577272708
   4555, -0.000186767342, 0.00261800084, 0.00577272708
   4556, 0.00215857429, 0.00178177387, 0.00577272708
   4557, -0.000160787502, -0.00287347427, 0.00577272708
   4558, 0.000860432629, 0.00251776353, 0.00577272708
   4559, 0.0028853002, -0.00150461926, 0.00577272708
   4560, -0.00282635377, 0.00239056721, 0.00577272708
   4561, 0.000548588345, 0.00327916909, 0.00577272708
   4562, -0.00103522185, 0.00252056657, 0.00577272708
   4563, 0.00283275265, 0.000586048176, 0.00577272708
   4564, 0.00215272489, -0.00154284958, 0.00577272708
   4565, 0.00333265262, -0.00193863653, 0.00577272708
   4566, 0.00355281425, -0.00108770491, 0.00577272708
   4567, 0.00359481131, -0.000145130383, 0.00577272708
   4568, -0.0023359023, -0.00183082477, 0.00577272708
   4569, 0.00306482054, -0.000248516328, 0.00577272708
   4570, 0.000667472021, 0.00288068084, 0.00577272708
   4571, 0.00104305637, 0.00307724578, 0.00577272708
   4572, -0.00083199935, -0.00185014843, 0.00577272708
   4573, -0.000604834524, 0.00196997123, 0.00577272708
   4574, -0.00259547913, 0.00179638213, 0.00577272708
   4575, 3.88241388e-05, -0.00210830895, 0.00577272708
   4576, 0.00164725259, 0.00148151908, 0.00577272708
   4577, 0.00242095604, 0.00140251254, 0.00577272708
   4578, 0.000627421017, 0.00191148254, 0.00577272708
   4579, -0.0013811196,  -0.00135007, 0.00577272708
   4580, 0.00275410013, -0.00101068977, 0.00577272708
   4581, -0.00187416759, -0.00152094779, 0.00577272708
   4582, -0.00242865551, 0.00105836208, 0.00577272708
   4583, -6.0290673e-05, 0.0021352896, 0.00577272708
   4584, 0.00257243309, -0.000391532725, 0.00577272708
   4585, -0.00263268594, -0.00146373489, 0.00577272708
   4586, 0.00191721506, -0.00118202239, 0.00577272708
   4587, -0.000580140157, -0.00244367123, 0.00577272708
   4588, -0.00201350613, 0.00129957171, 0.00577272708
   4589, 0.00106725481, -0.00164589926, 0.00577272708
   4590, 0.00114658801, 0.00117507228, 0.00577272708
   4591, 0.00190618366, 0.00112789962, 0.00577272708
   4592, 0.000366628345, 0.00123818335, 0.00577272708
   4593, 0.000416493887, 0.00231370912, 0.00577272708
   4594, -0.00103527016, -0.000848668802, 0.00577272708
   4595, 0.00296931528, 0.000166841462, 0.00577272708
   4596, 0.00151707651, -0.00142398698, 0.00577272708
   4597, -0.000801510876, 0.00128439965, 0.00577272708
   4598, -0.000209167163, -0.00161284197, 0.00577272708
   4599, -0.00296090939, -0.00114833191, 0.00577272708
   4600, 0.0024549847, -1.4813204e-05, 0.00577272708
   4601, 0.000914154225, -0.00122501259, 0.00577272708
   4602, 0.00134233665, -0.00103631616, 0.00577272708
   4603, 0.00143360544, 0.000859176042, 0.00577272708
   4604, 0.00212829164, 0.000752113643, 0.00577272708
   4605, -0.00294047943, 0.000742614502, 0.00577272708
   4606, 0.00230799569, 0.000370419933, 0.00577272708
   4607, 0.00311195711, -0.000649643189, 0.00577272708
   4608, 0.00213276432, -0.000587722694, 0.00577272708
   4609, -0.000944585889, -0.00296284794, 0.00577272708
   4610, 0.000141423341, 0.00168791867, 0.00577272708
   4611, 0.000622865162, 0.000741376076, 0.00577272708
   4612, -0.000340482773, 0.00149200519, 0.00577272708
   4613, 0.000361654878, -0.0012826228, 0.00577272708
   4614, -0.0012926287, 0.00166836032, 0.00577272708
   4615, 0.000613496988, -0.000732398708, 0.00577272708
   4616, -0.000151188229, 0.0010424651, 0.00577272708
   4617, 0.00198280136, -0.000219871872, 0.00577272708
   4618, -0.000633230025, 0.000901054882, 0.00577272708
   4619, -0.00155415211, 5.21985748e-05, 0.00577272708
   4620, -0.00214766851, -0.00102410931, 0.00577272708
   4621, -0.00245067058, 0.000644518586, 0.00577272708
   4622, 0.00155171473, -0.000442923862, 0.00577272708
   4623, 0.00107027742, 0.000601972977, 0.00577272708
   4624, -0.00152497459, -0.000917053316, 0.00577272708
   4625, -0.0010117389, 0.000809108606, 0.00577272708
   4626, -0.00268690172, -0.000761706033, 0.00577272708
   4627, -0.00312115229, -0.00178152137, 0.00577272708
   4628, -5.57922613e-06, -0.000881481101, 0.00577272708
   4629, -0.00207330636, -0.000427376159, 0.00577272708
   4630, 0.00182075496, 0.000146054736, 0.00577272708
   4631, -0.000550453085, 0.000462105003, 0.00577272708
   4632, 0.00117953774, -0.000669663481, 0.00577272708
   4633, -0.0020269223, 9.98058604e-05, 0.00577272708
   4634, -0.000749598257, -0.000406963052, 0.00577272708
   4635, 0.00116893614, 0.000262420217, 0.00577272708
   4636, 0.000619583181, 5.30813522e-05, 0.00577272708
   4637, -0.00107353542, 1.94925287e-05, 0.00577272708
   4638, -1.23417567e-05, 0.000577200612, 0.00577272708
   4639, 3.34280012e-05, 8.49908902e-05, 0.00577272708
   4640, 0.00135823153, -8.93766119e-05, 0.00577272708
   4641, 0.000321388652, -0.000485395518, 0.00577272708
   4642, -0.000523946073, -4.92745166e-05, 0.00577272708
   4643, -0.00157230778, -0.000435936701, 0.00577272708
   4644, 0.000943185936, -0.000345294422, 0.00577272708
   4645, 0.00164351484, 0.000501646835, 0.00577272708
   4646, 0.00264639547, 0.000999862212, 0.00577272708
   4647, -0.0011104648, -0.000411461981, 0.00577272708
   4648, -0.00257178117, -0.000312425283, 0.00577272708
   4649, -0.000269917189, -0.000500896305, 0.00577272708
   4650, -0.000318563427, 0.00419643195, 0.00577272708
   4651, 0.000291611359, -0.00431829831, 0.00577272708
   4652, 0.00338417524, 0.000793792715, 0.00577272708
   4653, -0.00030827726, 0.00366496085, 0.00577272708
   4654, -0.00315928599, 0.00223519979, 0.00577272708
   4655, 0.000259194087, -0.00397536671, 0.00577272708
   4656, 0.00193770218, -0.00298756175, 0.00577272708
   4657, 0.00307746138, -0.00106590847, 0.00577272708
   4658, 0.00298592844, -0.00185081188, 0.00577272708
   4659, 0.00273260451, -0.00215353072, 0.00577272708
   4660, 0.00311360625, -0.00231958134, 0.00577272708
   4661, 0.00066264387, -0.00305879372, 0.00577272708
   4662, -7.04654376e-05, -0.00386221963, 0.00577272708
   4663, 0.000867682858, 0.0033219764, 0.00577272708
   4664, -0.000261262147, 0.0031392735, 0.00577272708
   4665, -0.00109555002, 0.00297483732, 0.00577272708
   4666, -0.00307588046, -0.000184679564, 0.00577272708
   4667, -0.00321494951, -0.000911038136, 0.00577272708
   4668, -0.00203649863, -0.00218860968, 0.00577272708
   4669, -0.000316440681, -0.00343725714, 0.00577272708
   4670, 0.00252299802, -0.0012537532, 0.00577272708
   4671, 0.00131519185, -0.00208483613, 0.00577272708
   4672, 0.000341322564, -0.00258567906, 0.00577272708
   4673, 0.00173294265, -0.000813168241, 0.00577272708
   4674, 0.00230122125, -0.000936484255, 0.00577272708
   4675, 0.00267677754, -0.000736731279, 0.00577272708
   4676, 0.000259082415, 0.00274348469, 0.00577272708
   4677, 0.000575505546, -0.00184310519, 0.00577272708
   4678, -0.000623953005, 0.00253588241, 0.00577272708
   4679, -0.00151159009, 0.0022516863, 0.00577272708
   4680, -0.00250703539, 0.000170841202, 0.00577272708
   4681, -0.00128795544, -0.00168707827, 0.00577272708
   4682, 3.53105897e-05, -0.000303478009, 0.00577272708
   4683, 0.000887008209, -0.000876231119, 0.00577272708
   4684, -0.00198668684, 0.000639819016, 0.00577272708
   4685, -0.0011102251, 0.00210071378, 0.00577272708
   4686, -0.00134775729, 0.00112348737, 0.00577272708
   4687, -0.000908393471, -0.00129355956, 0.00577272708
   4688, -0.00042536456, -0.00114225002, 0.00577272708
   4689, -0.00105097017, 0.000458524708, 0.00577272708
   4690, -0.000610636838, -0.000723266741, 0.00577272708
   4691, -0.000904230517, 0.00162378035, 0.00577272708
   4692, -0.00150804105, 0.000569030643, 0.00577272708
   4693, -0.00135324989, 0.00396553334, 0.00519545469
   4694, -0.00402056053, 0.00101029815, 0.00519545469
   4695, -0.00297016394, -0.00289217359, 0.00519545469
   4696, 0.00397308171, 0.000992201152, 0.00519545469
   4697, 0.00212350115, 0.00354511268, 0.00519545469
   4698, 0.00125990773, -0.00400250824, 0.00519545469
   4699, 0.00314467889, -0.00292053982, 0.00519545469
   4700, 0.00374832447, -0.00209765113, 0.00519545469
   4701, 0.00407549227, -0.0011225834, 0.00519545469
   4702, 0.00415758137, -6.347007e-05, 0.00519545469
   4703, 0.00409602048, 0.000468003738, 0.00519545469
   4704, 0.0037879236, 0.00149980339, 0.00519545469
   4705, 0.00325157144, 0.00243436219, 0.00519545469
   4706, 0.00253152288, 0.00322010578, 0.00519545469
   4707, 0.00169254269, 0.0038232198, 0.00519545469
   4708, 0.000712110021, 0.00416869624, 0.00519545469
   4709, -0.000841098255, 0.00411218498, 0.00519545469
   4710, -0.00274003926, 0.00317171472, 0.00519545469
   4711, -0.00347115193, 0.00247505447, 0.00519545469
   4712, -0.0038807285, 0.00153199071, 0.00519545469
   4713, -0.00414161896, -0.000574599137, 0.00519545469
   4714, -0.00387396198, -0.0015894291, 0.00519545469
   4715, -0.00332311704, -0.0024855223, 0.00519545469
   4716, -0.00166725682, -0.00383298844, 0.00519545469
   4717, -0.000695951923, -0.0042049773, 0.00519545469
   4718, 0.000772389176, -0.00419611763, 0.00519545469
   4719, 0.00175150984, -0.00376692018, 0.00519545469
   4720, 0.00271001016, -0.00320286886, 0.00519545469
   4721, 0.00348136015, -0.00254004332, 0.00519545469
   4722, 0.00394045236, -0.00162366871, 0.00519545469
   4723, 0.00414883252, -0.000596157275, 0.00519545469
   4724, 0.00351941655, 0.000324701221, 0.00519545469
   4725, 0.00204495573, 0.00282008061, 0.00519545469
   4726, -0.00282244734, -0.00216782326, 0.00519545469
   4727, -0.000771973282, 0.00357665564, 0.00519545469
   4728, -0.00333736744, 0.00136134401, 0.00519545469
   4729, 0.000988309504, -0.00351155247, 0.00519545469
   4730, 0.00055882131, -0.00375104626, 0.00519545469
   4731, 0.00291620707, -0.0026352373, 0.00519545469
   4732, 0.00245204382, -0.00265190401, 0.00519545469
   4733, 0.0017081257, 0.00312953047, 0.00519545469
   4734, 0.00320142228, 0.00125144038, 0.00519545469
   4735, 0.00344620412, -0.00153000653, 0.00519545469
   4736, 0.00361137488, -0.000615609053, 0.00519545469
   4737, 0.00354529684, 0.0019814691, 0.00519545469
   4738, 0.00291160378, 0.00284737698, 0.00519545469
   4739, -0.00256794249, -0.00325510488, 0.00519545469
   4740, 0.00121839147, 0.00404197443, 0.00519545469
   4741, -0.00362852868, -0.00204763818, 0.00519545469
   4742, -0.0018484731, 0.00375401648, 0.00519545469
   4743, -0.00411584042, 0.000482196308, 0.00519545469
   4744, -0.00312830484, 0.00284483354, 0.00519545469
   4745, -0.00370325963, 0.00202818681, 0.00519545469
   4746, -0.004051005, -0.00109450193, 0.00519545469
   4747, 0.00223719073, -0.00349180237, 0.00519545469
   4748, -0.00119344355, -0.00404366432, 0.00519545469
   4749, 0.000197806672, 0.00421733828, 0.00519545469
   4750, -0.00212981319, -0.00356914126, 0.00519545469
   4751, -0.000204375261, -0.00430176966, 0.00519545469
   4752, -0.00416028267, -4.47708662e-05, 0.00519545469
   4753, -0.00230909651, 0.00348860933, 0.00519545469
   4754, 0.0011545578, -0.0027996928, 0.00519545469
   4755, 0.00156899134, 0.00246603554, 0.00519545469
   4756, -0.00354788383, 0.000372098963, 0.00519545469
   4757, -0.00166805799, 0.00325595844, 0.00519545469
   4758, -0.00212933798, -0.00286842952, 0.00519545469
   4759, -0.0033795936, -0.00140367029, 0.00519545469
   4760, -0.00245898636, 0.00267885718, 0.00519545469
   4761, -0.00356690213, -0.0010022528, 0.00519545469
   4762, 0.00238249777, 0.00247614784, 0.00519545469
   4763, -0.00320774689, 0.00183734798, 0.00519545469
   4764, 0.00145717501, -0.00326528074, 0.00519545469
   4765, -0.00207244186, 0.0029983623, 0.00519545469
   4766, -0.00130714767, -0.00338947773, 0.00519545469
   4767, 0.000140731077, 0.00371151417, 0.00519545469
   4768, -0.00172811642, -0.0031537991, 0.00519545469
   4769, -0.00362091744, -0.000560386456, 0.00519545469
   4770, -0.00360488612, -0.000101052217, 0.00519545469
   4771, 0.00137465156, 0.00340616587, 0.00519545469
   4772, 0.00296684611, 0.0016876508, 0.00519545469
   4773, -0.00313480734, -0.000599588093, 0.00519545469
   4774, -0.00148921448, 0.00282661617, 0.00519545469
   4775, -0.00301071326, 0.000265140668, 0.00519545469
   4776, -0.00171224575, -0.00250490871, 0.00519545469
   4777, -0.00182060245, 0.00256777345, 0.00519545469
   4778, -0.00135453546, -0.0027738472, 0.00519545469
   4779,  0.001870826,  0.002135196, 0.00519545469
   4780, -0.00282380497, 0.00123672944, 0.00519545469
   4781, 0.00205148384, -0.00223219814, 0.00519545469
   4782, 0.00100395468, 0.00362518849, 0.00519545469
   4783, 0.000152082255, 0.00321342587, 0.00519545469
   4784, 0.000156014619, -0.00336919143, 0.00519545469
   4785, -0.00249434332, -0.00253175036, 0.00519545469
   4786, -0.00122060697, 0.00345152454, 0.00519545469
   4787, -0.00346104824, 0.000866823015, 0.00519545469
   4788, 0.00128685881, 0.00278062373, 0.00519545469
   4789, 0.00161891407, -0.00253219646, 0.00519545469
   4790, -0.000900272455, -0.0035955233, 0.00519545469
   4791, -0.0012980618, -0.00218321267, 0.00519545469
   4792, -0.00134095387, 0.00252467697, 0.00519545469
   4793, 0.00269140187, 0.00209695008, 0.00519545469
   4794, 0.00137190078, 0.00182387407, 0.00519545469
   4795, -0.000564105227, -0.00319002755, 0.00519545469
   4796, 0.00110149034, 0.00216783886, 0.00519545469
   4797, 0.000847242423, -0.00232953043, 0.00519545469
   4798, 0.00174873474, -0.00182702171, 0.00519545469
   4799, 0.00058890396, 0.00371043221, 0.00519545469
   4800, -0.00216334779, 0.00220700284, 0.00519545469
   4801, 0.00243393006, -0.00186947593, 0.00519545469
   4802, -0.000690910092, 0.00305446191, 0.00519545469
   4803, -0.000485159166, -0.00377474586, 0.00519545469
   4804, 0.000876111619, 0.00152649579, 0.00519545469
   4805, -0.00160967186, -0.00190408016, 0.00519545469
   4806, -0.0010938209, -0.00245171133, 0.00519545469
   4807, -0.00175259309, 0.00184043497, 0.00519545469
   4808, -0.000186767342, 0.00261800084, 0.00519545469
   4809, 0.00215857429, 0.00178177387, 0.00519545469
   4810, -0.000160787502, -0.00287347427, 0.00519545469
   4811, 0.000860432629, 0.00251776353, 0.00519545469
   4812, 0.0028853002, -0.00150461926, 0.00519545469
   4813, -0.00282635377, 0.00239056721, 0.00519545469
   4814, 0.000548588345, 0.00327916909, 0.00519545469
   4815, -0.00103522185, 0.00252056657, 0.00519545469
   4816, 0.00283275265, 0.000586048176, 0.00519545469
   4817, 0.00215272489, -0.00154284958, 0.00519545469
   4818, 0.00333265262, -0.00193863653, 0.00519545469
   4819, 0.00355281425, -0.00108770491, 0.00519545469
   4820, 0.00359481131, -0.000145130383, 0.00519545469
   4821, -0.0023359023, -0.00183082477, 0.00519545469
   4822, 0.00306482054, -0.000248516328, 0.00519545469
   4823, 0.000667472021, 0.00288068084, 0.00519545469
   4824, 0.00104305637, 0.00307724578, 0.00519545469
   4825, -0.00083199935, -0.00185014843, 0.00519545469
   4826, -0.000604834524, 0.00196997123, 0.00519545469
   4827, -0.00259547913, 0.00179638213, 0.00519545469
   4828, 3.88241388e-05, -0.00210830895, 0.00519545469
   4829, 0.00164725259, 0.00148151908, 0.00519545469
   4830, 0.00242095604, 0.00140251254, 0.00519545469
   4831, 0.000627421017, 0.00191148254, 0.00519545469
   4832, -0.0013811196,  -0.00135007, 0.00519545469
   4833, 0.00275410013, -0.00101068977, 0.00519545469
   4834, -0.00187416759, -0.00152094779, 0.00519545469
   4835, -0.00242865551, 0.00105836208, 0.00519545469
   4836, -6.0290673e-05, 0.0021352896, 0.00519545469
   4837, 0.00257243309, -0.000391532725, 0.00519545469
   4838, -0.00263268594, -0.00146373489, 0.00519545469
   4839, 0.00191721506, -0.00118202239, 0.00519545469
   4840, -0.000580140157, -0.00244367123, 0.00519545469
   4841, -0.00201350613, 0.00129957171, 0.00519545469
   4842, 0.00106725481, -0.00164589926, 0.00519545469
   4843, 0.00114658801, 0.00117507228, 0.00519545469
   4844, 0.00190618366, 0.00112789962, 0.00519545469
   4845, 0.000366628345, 0.00123818335, 0.00519545469
   4846, 0.000416493887, 0.00231370912, 0.00519545469
   4847, -0.00103527016, -0.000848668802, 0.00519545469
   4848, 0.00296931528, 0.000166841462, 0.00519545469
   4849, 0.00151707651, -0.00142398698, 0.00519545469
   4850, -0.000801510876, 0.00128439965, 0.00519545469
   4851, -0.000209167163, -0.00161284197, 0.00519545469
   4852, -0.00296090939, -0.00114833191, 0.00519545469
   4853, 0.0024549847, -1.4813204e-05, 0.00519545469
   4854, 0.000914154225, -0.00122501259, 0.00519545469
   4855, 0.00134233665, -0.00103631616, 0.00519545469
   4856, 0.00143360544, 0.000859176042, 0.00519545469
   4857, 0.00212829164, 0.000752113643, 0.00519545469
   4858, -0.00294047943, 0.000742614502, 0.00519545469
   4859, 0.00230799569, 0.000370419933, 0.00519545469
   4860, 0.00311195711, -0.000649643189, 0.00519545469
   4861, 0.00213276432, -0.000587722694, 0.00519545469
   4862, -0.000944585889, -0.00296284794, 0.00519545469
   4863, 0.000141423341, 0.00168791867, 0.00519545469
   4864, 0.000622865162, 0.000741376076, 0.00519545469
   4865, -0.000340482773, 0.00149200519, 0.00519545469
   4866, 0.000361654878, -0.0012826228, 0.00519545469
   4867, -0.0012926287, 0.00166836032, 0.00519545469
   4868, 0.000613496988, -0.000732398708, 0.00519545469
   4869, -0.000151188229, 0.0010424651, 0.00519545469
   4870, 0.00198280136, -0.000219871872, 0.00519545469
   4871, -0.000633230025, 0.000901054882, 0.00519545469
   4872, -0.00155415211, 5.21985748e-05, 0.00519545469
   4873, -0.00214766851, -0.00102410931, 0.00519545469
   4874, -0.00245067058, 0.000644518586, 0.00519545469
   4875, 0.00155171473, -0.000442923862, 0.00519545469
   4876, 0.00107027742, 0.000601972977, 0.00519545469
   4877, -0.00152497459, -0.000917053316, 0.00519545469
   4878, -0.0010117389, 0.000809108606, 0.00519545469
   4879, -0.00268690172, -0.000761706033, 0.00519545469
   4880, -0.00312115229, -0.00178152137, 0.00519545469
   4881, -5.57922613e-06, -0.000881481101, 0.00519545469
   4882, -0.00207330636, -0.000427376159, 0.00519545469
   4883, 0.00182075496, 0.000146054736, 0.00519545469
   4884, -0.000550453085, 0.000462105003, 0.00519545469
   4885, 0.00117953774, -0.000669663481, 0.00519545469
   4886, -0.0020269223, 9.98058604e-05, 0.00519545469
   4887, -0.000749598257, -0.000406963052, 0.00519545469
   4888, 0.00116893614, 0.000262420217, 0.00519545469
   4889, 0.000619583181, 5.30813522e-05, 0.00519545469
   4890, -0.00107353542, 1.94925287e-05, 0.00519545469
   4891, -1.23417567e-05, 0.000577200612, 0.00519545469
   4892, 3.34280012e-05, 8.49908902e-05, 0.00519545469
   4893, 0.00135823153, -8.93766119e-05, 0.00519545469
   4894, 0.000321388652, -0.000485395518, 0.00519545469
   4895, -0.000523946073, -4.92745166e-05, 0.00519545469
   4896, -0.00157230778, -0.000435936701, 0.00519545469
   4897, 0.000943185936, -0.000345294422, 0.00519545469
   4898, 0.00164351484, 0.000501646835, 0.00519545469
   4899, 0.00264639547, 0.000999862212, 0.00519545469
   4900, -0.0011104648, -0.000411461981, 0.00519545469
   4901, -0.00257178117, -0.000312425283, 0.00519545469
   4902, -0.000269917189, -0.000500896305, 0.00519545469
   4903, -0.000318563427, 0.00419643195, 0.00519545469
   4904, 0.000291611359, -0.00431829831, 0.00519545469
   4905, 0.00338417524, 0.000793792715, 0.00519545469
   4906, -0.00030827726, 0.00366496085, 0.00519545469
   4907, -0.00315928599, 0.00223519979, 0.00519545469
   4908, 0.000259194087, -0.00397536671, 0.00519545469
   4909, 0.00193770218, -0.00298756175, 0.00519545469
   4910, 0.00307746138, -0.00106590847, 0.00519545469
   4911, 0.00298592844, -0.00185081188, 0.00519545469
   4912, 0.00273260451, -0.00215353072, 0.00519545469
   4913, 0.00311360625, -0.00231958134, 0.00519545469
   4914, 0.00066264387, -0.00305879372, 0.00519545469
   4915, -7.04654376e-05, -0.00386221963, 0.00519545469
   4916, 0.000867682858, 0.0033219764, 0.00519545469
   4917, -0.000261262147, 0.0031392735, 0.00519545469
   4918, -0.00109555002, 0.00297483732, 0.00519545469
   4919, -0.00307588046, -0.000184679564, 0.00519545469
   4920, -0.00321494951, -0.000911038136, 0.00519545469
   4921, -0.00203649863, -0.00218860968, 0.00519545469
   4922, -0.000316440681, -0.00343725714, 0.00519545469
   4923, 0.00252299802, -0.0012537532, 0.00519545469
   4924, 0.00131519185, -0.00208483613, 0.00519545469
   4925, 0.000341322564, -0.00258567906, 0.00519545469
   4926, 0.00173294265, -0.000813168241, 0.00519545469
   4927, 0.00230122125, -0.000936484255, 0.00519545469
   4928, 0.00267677754, -0.000736731279, 0.00519545469
   4929, 0.000259082415, 0.00274348469, 0.00519545469
   4930, 0.000575505546, -0.00184310519, 0.00519545469
   4931, -0.000623953005, 0.00253588241, 0.00519545469
   4932, -0.00151159009, 0.0022516863, 0.00519545469
   4933, -0.00250703539, 0.000170841202, 0.00519545469
   4934, -0.00128795544, -0.00168707827, 0.00519545469
   4935, 3.53105897e-05, -0.000303478009, 0.00519545469
   4936, 0.000887008209, -0.000876231119, 0.00519545469
   4937, -0.00198668684, 0.000639819016, 0.00519545469
   4938, -0.0011102251, 0.00210071378, 0.00519545469
   4939, -0.00134775729, 0.00112348737, 0.00519545469
   4940, -0.000908393471, -0.00129355956, 0.00519545469
   4941, -0.00042536456, -0.00114225002, 0.00519545469
   4942, -0.00105097017, 0.000458524708, 0.00519545469
   4943, -0.000610636838, -0.000723266741, 0.00519545469
   4944, -0.000904230517, 0.00162378035, 0.00519545469
   4945, -0.00150804105, 0.000569030643, 0.00519545469
   4946, -0.00135324989, 0.00396553334, 0.00461818185
   4947, -0.00402056053, 0.00101029815, 0.00461818185
   4948, -0.00297016394, -0.00289217359, 0.00461818185
   4949, 0.00397308171, 0.000992201152, 0.00461818185
   4950, 0.00212350115, 0.00354511268, 0.00461818185
   4951, 0.00125990773, -0.00400250824, 0.00461818185
   4952, 0.00314467889, -0.00292053982, 0.00461818185
   4953, 0.00374832447, -0.00209765113, 0.00461818185
   4954, 0.00407549227, -0.0011225834, 0.00461818185
   4955, 0.00415758137, -6.347007e-05, 0.00461818185
   4956, 0.00409602048, 0.000468003738, 0.00461818185
   4957, 0.0037879236, 0.00149980339, 0.00461818185
   4958, 0.00325157144, 0.00243436219, 0.00461818185
   4959, 0.00253152288, 0.00322010578, 0.00461818185
   4960, 0.00169254269, 0.0038232198, 0.00461818185
   4961, 0.000712110021, 0.00416869624, 0.00461818185
   4962, -0.000841098255, 0.00411218498, 0.00461818185
   4963, -0.00274003926, 0.00317171472, 0.00461818185
   4964, -0.00347115193, 0.00247505447, 0.00461818185
   4965, -0.0038807285, 0.00153199071, 0.00461818185
   4966, -0.00414161896, -0.000574599137, 0.00461818185
   4967, -0.00387396198, -0.0015894291, 0.00461818185
   4968, -0.00332311704, -0.0024855223, 0.00461818185
   4969, -0.00166725682, -0.00383298844, 0.00461818185
   4970, -0.000695951923, -0.0042049773, 0.00461818185
   4971, 0.000772389176, -0.00419611763, 0.00461818185
   4972, 0.00175150984, -0.00376692018, 0.00461818185
   4973, 0.00271001016, -0.00320286886, 0.00461818185
   4974, 0.00348136015, -0.00254004332, 0.00461818185
   4975, 0.00394045236, -0.00162366871, 0.00461818185
   4976, 0.00414883252, -0.000596157275, 0.00461818185
   4977, 0.00351941655, 0.000324701221, 0.00461818185
   4978, 0.00204495573, 0.00282008061, 0.00461818185
   4979, -0.00282244734, -0.00216782326, 0.00461818185
   4980, -0.000771973282, 0.00357665564, 0.00461818185
   4981, -0.00333736744, 0.00136134401, 0.00461818185
   4982, 0.000988309504, -0.00351155247, 0.00461818185
   4983, 0.00055882131, -0.00375104626, 0.00461818185
   4984, 0.00291620707, -0.0026352373, 0.00461818185
   4985, 0.00245204382, -0.00265190401, 0.00461818185
   4986, 0.0017081257, 0.00312953047, 0.00461818185
   4987, 0.00320142228, 0.00125144038, 0.00461818185
   4988, 0.00344620412, -0.00153000653, 0.00461818185
   4989, 0.00361137488, -0.000615609053, 0.00461818185
   4990, 0.00354529684, 0.0019814691, 0.00461818185
   4991, 0.00291160378, 0.00284737698, 0.00461818185
   4992, -0.00256794249, -0.00325510488, 0.00461818185
   4993, 0.00121839147, 0.00404197443, 0.00461818185
   4994, -0.00362852868, -0.00204763818, 0.00461818185
   4995, -0.0018484731, 0.00375401648, 0.00461818185
   4996, -0.00411584042, 0.000482196308, 0.00461818185
   4997, -0.00312830484, 0.00284483354, 0.00461818185
   4998, -0.00370325963, 0.00202818681, 0.00461818185
   4999, -0.004051005, -0.00109450193, 0.00461818185
   5000, 0.00223719073, -0.00349180237, 0.00461818185
   5001, -0.00119344355, -0.00404366432, 0.00461818185
   5002, 0.000197806672, 0.00421733828, 0.00461818185
   5003, -0.00212981319, -0.00356914126, 0.00461818185
   5004, -0.000204375261, -0.00430176966, 0.00461818185
   5005, -0.00416028267, -4.47708662e-05, 0.00461818185
   5006, -0.00230909651, 0.00348860933, 0.00461818185
   5007, 0.0011545578, -0.0027996928, 0.00461818185
   5008, 0.00156899134, 0.00246603554, 0.00461818185
   5009, -0.00354788383, 0.000372098963, 0.00461818185
   5010, -0.00166805799, 0.00325595844, 0.00461818185
   5011, -0.00212933798, -0.00286842952, 0.00461818185
   5012, -0.0033795936, -0.00140367029, 0.00461818185
   5013, -0.00245898636, 0.00267885718, 0.00461818185
   5014, -0.00356690213, -0.0010022528, 0.00461818185
   5015, 0.00238249777, 0.00247614784, 0.00461818185
   5016, -0.00320774689, 0.00183734798, 0.00461818185
   5017, 0.00145717501, -0.00326528074, 0.00461818185
   5018, -0.00207244186, 0.0029983623, 0.00461818185
   5019, -0.00130714767, -0.00338947773, 0.00461818185
   5020, 0.000140731077, 0.00371151417, 0.00461818185
   5021, -0.00172811642, -0.0031537991, 0.00461818185
   5022, -0.00362091744, -0.000560386456, 0.00461818185
   5023, -0.00360488612, -0.000101052217, 0.00461818185
   5024, 0.00137465156, 0.00340616587, 0.00461818185
   5025, 0.00296684611, 0.0016876508, 0.00461818185
   5026, -0.00313480734, -0.000599588093, 0.00461818185
   5027, -0.00148921448, 0.00282661617, 0.00461818185
   5028, -0.00301071326, 0.000265140668, 0.00461818185
   5029, -0.00171224575, -0.00250490871, 0.00461818185
   5030, -0.00182060245, 0.00256777345, 0.00461818185
   5031, -0.00135453546, -0.0027738472, 0.00461818185
   5032,  0.001870826,  0.002135196, 0.00461818185
   5033, -0.00282380497, 0.00123672944, 0.00461818185
   5034, 0.00205148384, -0.00223219814, 0.00461818185
   5035, 0.00100395468, 0.00362518849, 0.00461818185
   5036, 0.000152082255, 0.00321342587, 0.00461818185
   5037, 0.000156014619, -0.00336919143, 0.00461818185
   5038, -0.00249434332, -0.00253175036, 0.00461818185
   5039, -0.00122060697, 0.00345152454, 0.00461818185
   5040, -0.00346104824, 0.000866823015, 0.00461818185
   5041, 0.00128685881, 0.00278062373, 0.00461818185
   5042, 0.00161891407, -0.00253219646, 0.00461818185
   5043, -0.000900272455, -0.0035955233, 0.00461818185
   5044, -0.0012980618, -0.00218321267, 0.00461818185
   5045, -0.00134095387, 0.00252467697, 0.00461818185
   5046, 0.00269140187, 0.00209695008, 0.00461818185
   5047, 0.00137190078, 0.00182387407, 0.00461818185
   5048, -0.000564105227, -0.00319002755, 0.00461818185
   5049, 0.00110149034, 0.00216783886, 0.00461818185
   5050, 0.000847242423, -0.00232953043, 0.00461818185
   5051, 0.00174873474, -0.00182702171, 0.00461818185
   5052, 0.00058890396, 0.00371043221, 0.00461818185
   5053, -0.00216334779, 0.00220700284, 0.00461818185
   5054, 0.00243393006, -0.00186947593, 0.00461818185
   5055, -0.000690910092, 0.00305446191, 0.00461818185
   5056, -0.000485159166, -0.00377474586, 0.00461818185
   5057, 0.000876111619, 0.00152649579, 0.00461818185
   5058, -0.00160967186, -0.00190408016, 0.00461818185
   5059, -0.0010938209, -0.00245171133, 0.00461818185
   5060, -0.00175259309, 0.00184043497, 0.00461818185
   5061, -0.000186767342, 0.00261800084, 0.00461818185
   5062, 0.00215857429, 0.00178177387, 0.00461818185
   5063, -0.000160787502, -0.00287347427, 0.00461818185
   5064, 0.000860432629, 0.00251776353, 0.00461818185
   5065, 0.0028853002, -0.00150461926, 0.00461818185
   5066, -0.00282635377, 0.00239056721, 0.00461818185
   5067, 0.000548588345, 0.00327916909, 0.00461818185
   5068, -0.00103522185, 0.00252056657, 0.00461818185
   5069, 0.00283275265, 0.000586048176, 0.00461818185
   5070, 0.00215272489, -0.00154284958, 0.00461818185
   5071, 0.00333265262, -0.00193863653, 0.00461818185
   5072, 0.00355281425, -0.00108770491, 0.00461818185
   5073, 0.00359481131, -0.000145130383, 0.00461818185
   5074, -0.0023359023, -0.00183082477, 0.00461818185
   5075, 0.00306482054, -0.000248516328, 0.00461818185
   5076, 0.000667472021, 0.00288068084, 0.00461818185
   5077, 0.00104305637, 0.00307724578, 0.00461818185
   5078, -0.00083199935, -0.00185014843, 0.00461818185
   5079, -0.000604834524, 0.00196997123, 0.00461818185
   5080, -0.00259547913, 0.00179638213, 0.00461818185
   5081, 3.88241388e-05, -0.00210830895, 0.00461818185
   5082, 0.00164725259, 0.00148151908, 0.00461818185
   5083, 0.00242095604, 0.00140251254, 0.00461818185
   5084, 0.000627421017, 0.00191148254, 0.00461818185
   5085, -0.0013811196,  -0.00135007, 0.00461818185
   5086, 0.00275410013, -0.00101068977, 0.00461818185
   5087, -0.00187416759, -0.00152094779, 0.00461818185
   5088, -0.00242865551, 0.00105836208, 0.00461818185
   5089, -6.0290673e-05, 0.0021352896, 0.00461818185
   5090, 0.00257243309, -0.000391532725, 0.00461818185
   5091, -0.00263268594, -0.00146373489, 0.00461818185
   5092, 0.00191721506, -0.00118202239, 0.00461818185
   5093, -0.000580140157, -0.00244367123, 0.00461818185
   5094, -0.00201350613, 0.00129957171, 0.00461818185
   5095, 0.00106725481, -0.00164589926, 0.00461818185
   5096, 0.00114658801, 0.00117507228, 0.00461818185
   5097, 0.00190618366, 0.00112789962, 0.00461818185
   5098, 0.000366628345, 0.00123818335, 0.00461818185
   5099, 0.000416493887, 0.00231370912, 0.00461818185
   5100, -0.00103527016, -0.000848668802, 0.00461818185
   5101, 0.00296931528, 0.000166841462, 0.00461818185
   5102, 0.00151707651, -0.00142398698, 0.00461818185
   5103, -0.000801510876, 0.00128439965, 0.00461818185
   5104, -0.000209167163, -0.00161284197, 0.00461818185
   5105, -0.00296090939, -0.00114833191, 0.00461818185
   5106, 0.0024549847, -1.4813204e-05, 0.00461818185
   5107, 0.000914154225, -0.00122501259, 0.00461818185
   5108, 0.00134233665, -0.00103631616, 0.00461818185
   5109, 0.00143360544, 0.000859176042, 0.00461818185
   5110, 0.00212829164, 0.000752113643, 0.00461818185
   5111, -0.00294047943, 0.000742614502, 0.00461818185
   5112, 0.00230799569, 0.000370419933, 0.00461818185
   5113, 0.00311195711, -0.000649643189, 0.00461818185
   5114, 0.00213276432, -0.000587722694, 0.00461818185
   5115, -0.000944585889, -0.00296284794, 0.00461818185
   5116, 0.000141423341, 0.00168791867, 0.00461818185
   5117, 0.000622865162, 0.000741376076, 0.00461818185
   5118, -0.000340482773, 0.00149200519, 0.00461818185
   5119, 0.000361654878, -0.0012826228, 0.00461818185
   5120, -0.0012926287, 0.00166836032, 0.00461818185
   5121, 0.000613496988, -0.000732398708, 0.00461818185
   5122, -0.000151188229, 0.0010424651, 0.00461818185
   5123, 0.00198280136, -0.000219871872, 0.00461818185
   5124, -0.000633230025, 0.000901054882, 0.00461818185
   5125, -0.00155415211, 5.21985748e-05, 0.00461818185
   5126, -0.00214766851, -0.00102410931, 0.00461818185
   5127, -0.00245067058, 0.000644518586, 0.00461818185
   5128, 0.00155171473, -0.000442923862, 0.00461818185
   5129, 0.00107027742, 0.000601972977, 0.00461818185
   5130, -0.00152497459, -0.000917053316, 0.00461818185
   5131, -0.0010117389, 0.000809108606, 0.00461818185
   5132, -0.00268690172, -0.000761706033, 0.00461818185
   5133, -0.00312115229, -0.00178152137, 0.00461818185
   5134, -5.57922613e-06, -0.000881481101, 0.00461818185
   5135, -0.00207330636, -0.000427376159, 0.00461818185
   5136, 0.00182075496, 0.000146054736, 0.00461818185
   5137, -0.000550453085, 0.000462105003, 0.00461818185
   5138, 0.00117953774, -0.000669663481, 0.00461818185
   5139, -0.0020269223, 9.98058604e-05, 0.00461818185
   5140, -0.000749598257, -0.000406963052, 0.00461818185
   5141, 0.00116893614, 0.000262420217, 0.00461818185
   5142, 0.000619583181, 5.30813522e-05, 0.00461818185
   5143, -0.00107353542, 1.94925287e-05, 0.00461818185
   5144, -1.23417567e-05, 0.000577200612, 0.00461818185
   5145, 3.34280012e-05, 8.49908902e-05, 0.00461818185
   5146, 0.00135823153, -8.93766119e-05, 0.00461818185
   5147, 0.000321388652, -0.000485395518, 0.00461818185
   5148, -0.000523946073, -4.92745166e-05, 0.00461818185
   5149, -0.00157230778, -0.000435936701, 0.00461818185
   5150, 0.000943185936, -0.000345294422, 0.00461818185
   5151, 0.00164351484, 0.000501646835, 0.00461818185
   5152, 0.00264639547, 0.000999862212, 0.00461818185
   5153, -0.0011104648, -0.000411461981, 0.00461818185
   5154, -0.00257178117, -0.000312425283, 0.00461818185
   5155, -0.000269917189, -0.000500896305, 0.00461818185
   5156, -0.000318563427, 0.00419643195, 0.00461818185
   5157, 0.000291611359, -0.00431829831, 0.00461818185
   5158, 0.00338417524, 0.000793792715, 0.00461818185
   5159, -0.00030827726, 0.00366496085, 0.00461818185
   5160, -0.00315928599, 0.00223519979, 0.00461818185
   5161, 0.000259194087, -0.00397536671, 0.00461818185
   5162, 0.00193770218, -0.00298756175, 0.00461818185
   5163, 0.00307746138, -0.00106590847, 0.00461818185
   5164, 0.00298592844, -0.00185081188, 0.00461818185
   5165, 0.00273260451, -0.00215353072, 0.00461818185
   5166, 0.00311360625, -0.00231958134, 0.00461818185
   5167, 0.00066264387, -0.00305879372, 0.00461818185
   5168, -7.04654376e-05, -0.00386221963, 0.00461818185
   5169, 0.000867682858, 0.0033219764, 0.00461818185
   5170, -0.000261262147, 0.0031392735, 0.00461818185
   5171, -0.00109555002, 0.00297483732, 0.00461818185
   5172, -0.00307588046, -0.000184679564, 0.00461818185
   5173, -0.00321494951, -0.000911038136, 0.00461818185
   5174, -0.00203649863, -0.00218860968, 0.00461818185
   5175, -0.000316440681, -0.00343725714, 0.00461818185
   5176, 0.00252299802, -0.0012537532, 0.00461818185
   5177, 0.00131519185, -0.00208483613, 0.00461818185
   5178, 0.000341322564, -0.00258567906, 0.00461818185
   5179, 0.00173294265, -0.000813168241, 0.00461818185
   5180, 0.00230122125, -0.000936484255, 0.00461818185
   5181, 0.00267677754, -0.000736731279, 0.00461818185
   5182, 0.000259082415, 0.00274348469, 0.00461818185
   5183, 0.000575505546, -0.00184310519, 0.00461818185
   5184, -0.000623953005, 0.00253588241, 0.00461818185
   5185, -0.00151159009, 0.0022516863, 0.00461818185
   5186, -0.00250703539, 0.000170841202, 0.00461818185
   5187, -0.00128795544, -0.00168707827, 0.00461818185
   5188, 3.53105897e-05, -0.000303478009, 0.00461818185
   5189, 0.000887008209, -0.000876231119, 0.00461818185
   5190, -0.00198668684, 0.000639819016, 0.00461818185
   5191, -0.0011102251, 0.00210071378, 0.00461818185
   5192, -0.00134775729, 0.00112348737, 0.00461818185
   5193, -0.000908393471, -0.00129355956, 0.00461818185
   5194, -0.00042536456, -0.00114225002, 0.00461818185
   5195, -0.00105097017, 0.000458524708, 0.00461818185
   5196, -0.000610636838, -0.000723266741, 0.00461818185
   5197, -0.000904230517, 0.00162378035, 0.00461818185
   5198, -0.00150804105, 0.000569030643, 0.00461818185
   5199, -0.00135324989, 0.00396553334,  0.004040909
   5200, -0.00402056053, 0.00101029815,  0.004040909
   5201, -0.00297016394, -0.00289217359,  0.004040909
   5202, 0.00397308171, 0.000992201152,  0.004040909
   5203, 0.00212350115, 0.00354511268,  0.004040909
   5204, 0.00125990773, -0.00400250824,  0.004040909
   5205, 0.00314467889, -0.00292053982,  0.004040909
   5206, 0.00374832447, -0.00209765113,  0.004040909
   5207, 0.00407549227, -0.0011225834,  0.004040909
   5208, 0.00415758137, -6.347007e-05,  0.004040909
   5209, 0.00409602048, 0.000468003738,  0.004040909
   5210, 0.0037879236, 0.00149980339,  0.004040909
   5211, 0.00325157144, 0.00243436219,  0.004040909
   5212, 0.00253152288, 0.00322010578,  0.004040909
   5213, 0.00169254269, 0.0038232198,  0.004040909
   5214, 0.000712110021, 0.00416869624,  0.004040909
   5215, -0.000841098255, 0.00411218498,  0.004040909
   5216, -0.00274003926, 0.00317171472,  0.004040909
   5217, -0.00347115193, 0.00247505447,  0.004040909
   5218, -0.0038807285, 0.00153199071,  0.004040909
   5219, -0.00414161896, -0.000574599137,  0.004040909
   5220, -0.00387396198, -0.0015894291,  0.004040909
   5221, -0.00332311704, -0.0024855223,  0.004040909
   5222, -0.00166725682, -0.00383298844,  0.004040909
   5223, -0.000695951923, -0.0042049773,  0.004040909
   5224, 0.000772389176, -0.00419611763,  0.004040909
   5225, 0.00175150984, -0.00376692018,  0.004040909
   5226, 0.00271001016, -0.00320286886,  0.004040909
   5227, 0.00348136015, -0.00254004332,  0.004040909
   5228, 0.00394045236, -0.00162366871,  0.004040909
   5229, 0.00414883252, -0.000596157275,  0.004040909
   5230, 0.00351941655, 0.000324701221,  0.004040909
   5231, 0.00204495573, 0.00282008061,  0.004040909
   5232, -0.00282244734, -0.00216782326,  0.004040909
   5233, -0.000771973282, 0.00357665564,  0.004040909
   5234, -0.00333736744, 0.00136134401,  0.004040909
   5235, 0.000988309504, -0.00351155247,  0.004040909
   5236, 0.00055882131, -0.00375104626,  0.004040909
   5237, 0.00291620707, -0.0026352373,  0.004040909
   5238, 0.00245204382, -0.00265190401,  0.004040909
   5239, 0.0017081257, 0.00312953047,  0.004040909
   5240, 0.00320142228, 0.00125144038,  0.004040909
   5241, 0.00344620412, -0.00153000653,  0.004040909
   5242, 0.00361137488, -0.000615609053,  0.004040909
   5243, 0.00354529684, 0.0019814691,  0.004040909
   5244, 0.00291160378, 0.00284737698,  0.004040909
   5245, -0.00256794249, -0.00325510488,  0.004040909
   5246, 0.00121839147, 0.00404197443,  0.004040909
   5247, -0.00362852868, -0.00204763818,  0.004040909
   5248, -0.0018484731, 0.00375401648,  0.004040909
   5249, -0.00411584042, 0.000482196308,  0.004040909
   5250, -0.00312830484, 0.00284483354,  0.004040909
   5251, -0.00370325963, 0.00202818681,  0.004040909
   5252, -0.004051005, -0.00109450193,  0.004040909
   5253, 0.00223719073, -0.00349180237,  0.004040909
   5254, -0.00119344355, -0.00404366432,  0.004040909
   5255, 0.000197806672, 0.00421733828,  0.004040909
   5256, -0.00212981319, -0.00356914126,  0.004040909
   5257, -0.000204375261, -0.00430176966,  0.004040909
   5258, -0.00416028267, -4.47708662e-05,  0.004040909
   5259, -0.00230909651, 0.00348860933,  0.004040909
   5260, 0.0011545578, -0.0027996928,  0.004040909
   5261, 0.00156899134, 0.00246603554,  0.004040909
   5262, -0.00354788383, 0.000372098963,  0.004040909
   5263, -0.00166805799, 0.00325595844,  0.004040909
   5264, -0.00212933798, -0.00286842952,  0.004040909
   5265, -0.0033795936, -0.00140367029,  0.004040909
   5266, -0.00245898636, 0.00267885718,  0.004040909
   5267, -0.00356690213, -0.0010022528,  0.004040909
   5268, 0.00238249777, 0.00247614784,  0.004040909
   5269, -0.00320774689, 0.00183734798,  0.004040909
   5270, 0.00145717501, -0.00326528074,  0.004040909
   5271, -0.00207244186, 0.0029983623,  0.004040909
   5272, -0.00130714767, -0.00338947773,  0.004040909
   5273, 0.000140731077, 0.00371151417,  0.004040909
   5274, -0.00172811642, -0.0031537991,  0.004040909
   5275, -0.00362091744, -0.000560386456,  0.004040909
   5276, -0.00360488612, -0.000101052217,  0.004040909
   5277, 0.00137465156, 0.00340616587,  0.004040909
   5278, 0.00296684611, 0.0016876508,  0.004040909
   5279, -0.00313480734, -0.000599588093,  0.004040909
   5280, -0.00148921448, 0.00282661617,  0.004040909
   5281, -0.00301071326, 0.000265140668,  0.004040909
   5282, -0.00171224575, -0.00250490871,  0.004040909
   5283, -0.00182060245, 0.00256777345,  0.004040909
   5284, -0.00135453546, -0.0027738472,  0.004040909
   5285,  0.001870826,  0.002135196,  0.004040909
   5286, -0.00282380497, 0.00123672944,  0.004040909
   5287, 0.00205148384, -0.00223219814,  0.004040909
   5288, 0.00100395468, 0.00362518849,  0.004040909
   5289, 0.000152082255, 0.00321342587,  0.004040909
   5290, 0.000156014619, -0.00336919143,  0.004040909
   5291, -0.00249434332, -0.00253175036,  0.004040909
   5292, -0.00122060697, 0.00345152454,  0.004040909
   5293, -0.00346104824, 0.000866823015,  0.004040909
   5294, 0.00128685881, 0.00278062373,  0.004040909
   5295, 0.00161891407, -0.00253219646,  0.004040909
   5296, -0.000900272455, -0.0035955233,  0.004040909
   5297, -0.0012980618, -0.00218321267,  0.004040909
   5298, -0.00134095387, 0.00252467697,  0.004040909
   5299, 0.00269140187, 0.00209695008,  0.004040909
   5300, 0.00137190078, 0.00182387407,  0.004040909
   5301, -0.000564105227, -0.00319002755,  0.004040909
   5302, 0.00110149034, 0.00216783886,  0.004040909
   5303, 0.000847242423, -0.00232953043,  0.004040909
   5304, 0.00174873474, -0.00182702171,  0.004040909
   5305, 0.00058890396, 0.00371043221,  0.004040909
   5306, -0.00216334779, 0.00220700284,  0.004040909
   5307, 0.00243393006, -0.00186947593,  0.004040909
   5308, -0.000690910092, 0.00305446191,  0.004040909
   5309, -0.000485159166, -0.00377474586,  0.004040909
   5310, 0.000876111619, 0.00152649579,  0.004040909
   5311, -0.00160967186, -0.00190408016,  0.004040909
   5312, -0.0010938209, -0.00245171133,  0.004040909
   5313, -0.00175259309, 0.00184043497,  0.004040909
   5314, -0.000186767342, 0.00261800084,  0.004040909
   5315, 0.00215857429, 0.00178177387,  0.004040909
   5316, -0.000160787502, -0.00287347427,  0.004040909
   5317, 0.000860432629, 0.00251776353,  0.004040909
   5318, 0.0028853002, -0.00150461926,  0.004040909
   5319, -0.00282635377, 0.00239056721,  0.004040909
   5320, 0.000548588345, 0.00327916909,  0.004040909
   5321, -0.00103522185, 0.00252056657,  0.004040909
   5322, 0.00283275265, 0.000586048176,  0.004040909
   5323, 0.00215272489, -0.00154284958,  0.004040909
   5324, 0.00333265262, -0.00193863653,  0.004040909
   5325, 0.00355281425, -0.00108770491,  0.004040909
   5326, 0.00359481131, -0.000145130383,  0.004040909
   5327, -0.0023359023, -0.00183082477,  0.004040909
   5328, 0.00306482054, -0.000248516328,  0.004040909
   5329, 0.000667472021, 0.00288068084,  0.004040909
   5330, 0.00104305637, 0.00307724578,  0.004040909
   5331, -0.00083199935, -0.00185014843,  0.004040909
   5332, -0.000604834524, 0.00196997123,  0.004040909
   5333, -0.00259547913, 0.00179638213,  0.004040909
   5334, 3.88241388e-05, -0.00210830895,  0.004040909
   5335, 0.00164725259, 0.00148151908,  0.004040909
   5336, 0.00242095604, 0.00140251254,  0.004040909
   5337, 0.000627421017, 0.00191148254,  0.004040909
   5338, -0.0013811196,  -0.00135007,  0.004040909
   5339, 0.00275410013, -0.00101068977,  0.004040909
   5340, -0.00187416759, -0.00152094779,  0.004040909
   5341, -0.00242865551, 0.00105836208,  0.004040909
   5342, -6.0290673e-05, 0.0021352896,  0.004040909
   5343, 0.00257243309, -0.000391532725,  0.004040909
   5344, -0.00263268594, -0.00146373489,  0.004040909
   5345, 0.00191721506, -0.00118202239,  0.004040909
   5346, -0.000580140157, -0.00244367123,  0.004040909
   5347, -0.00201350613, 0.00129957171,  0.004040909
   5348, 0.00106725481, -0.00164589926,  0.004040909
   5349, 0.00114658801, 0.00117507228,  0.004040909
   5350, 0.00190618366, 0.00112789962,  0.004040909
   5351, 0.000366628345, 0.00123818335,  0.004040909
   5352, 0.000416493887, 0.00231370912,  0.004040909
   5353, -0.00103527016, -0.000848668802,  0.004040909
   5354, 0.00296931528, 0.000166841462,  0.004040909
   5355, 0.00151707651, -0.00142398698,  0.004040909
   5356, -0.000801510876, 0.00128439965,  0.004040909
   5357, -0.000209167163, -0.00161284197,  0.004040909
   5358, -0.00296090939, -0.00114833191,  0.004040909
   5359, 0.0024549847, -1.4813204e-05,  0.004040909
   5360, 0.000914154225, -0.00122501259,  0.004040909
   5361, 0.00134233665, -0.00103631616,  0.004040909
   5362, 0.00143360544, 0.000859176042,  0.004040909
   5363, 0.00212829164, 0.000752113643,  0.004040909
   5364, -0.00294047943, 0.000742614502,  0.004040909
   5365, 0.00230799569, 0.000370419933,  0.004040909
   5366, 0.00311195711, -0.000649643189,  0.004040909
   5367, 0.00213276432, -0.000587722694,  0.004040909
   5368, -0.000944585889, -0.00296284794,  0.004040909
   5369, 0.000141423341, 0.00168791867,  0.004040909
   5370, 0.000622865162, 0.000741376076,  0.004040909
   5371, -0.000340482773, 0.00149200519,  0.004040909
   5372, 0.000361654878, -0.0012826228,  0.004040909
   5373, -0.0012926287, 0.00166836032,  0.004040909
   5374, 0.000613496988, -0.000732398708,  0.004040909
   5375, -0.000151188229, 0.0010424651,  0.004040909
   5376, 0.00198280136, -0.000219871872,  0.004040909
   5377, -0.000633230025, 0.000901054882,  0.004040909
   5378, -0.00155415211, 5.21985748e-05,  0.004040909
   5379, -0.00214766851, -0.00102410931,  0.004040909
   5380, -0.00245067058, 0.000644518586,  0.004040909
   5381, 0.00155171473, -0.000442923862,  0.004040909
   5382, 0.00107027742, 0.000601972977,  0.004040909
   5383, -0.00152497459, -0.000917053316,  0.004040909
   5384, -0.0010117389, 0.000809108606,  0.004040909
   5385, -0.00268690172, -0.000761706033,  0.004040909
   5386, -0.00312115229, -0.00178152137,  0.004040909
   5387, -5.57922613e-06, -0.000881481101,  0.004040909
   5388, -0.00207330636, -0.000427376159,  0.004040909
   5389, 0.00182075496, 0.000146054736,  0.004040909
   5390, -0.000550453085, 0.000462105003,  0.004040909
   5391, 0.00117953774, -0.000669663481,  0.004040909
   5392, -0.0020269223, 9.98058604e-05,  0.004040909
   5393, -0.000749598257, -0.000406963052,  0.004040909
   5394, 0.00116893614, 0.000262420217,  0.004040909
   5395, 0.000619583181, 5.30813522e-05,  0.004040909
   5396, -0.00107353542, 1.94925287e-05,  0.004040909
   5397, -1.23417567e-05, 0.000577200612,  0.004040909
   5398, 3.34280012e-05, 8.49908902e-05,  0.004040909
   5399, 0.00135823153, -8.93766119e-05,  0.004040909
   5400, 0.000321388652, -0.000485395518,  0.004040909
   5401, -0.000523946073, -4.92745166e-05,  0.004040909
   5402, -0.00157230778, -0.000435936701,  0.004040909
   5403, 0.000943185936, -0.000345294422,  0.004040909
   5404, 0.00164351484, 0.000501646835,  0.004040909
   5405, 0.00264639547, 0.000999862212,  0.004040909
   5406, -0.0011104648, -0.000411461981,  0.004040909
   5407, -0.00257178117, -0.000312425283,  0.004040909
   5408, -0.000269917189, -0.000500896305,  0.004040909
   5409, -0.000318563427, 0.00419643195,  0.004040909
   5410, 0.000291611359, -0.00431829831,  0.004040909
   5411, 0.00338417524, 0.000793792715,  0.004040909
   5412, -0.00030827726, 0.00366496085,  0.004040909
   5413, -0.00315928599, 0.00223519979,  0.004040909
   5414, 0.000259194087, -0.00397536671,  0.004040909
   5415, 0.00193770218, -0.00298756175,  0.004040909
   5416, 0.00307746138, -0.00106590847,  0.004040909
   5417, 0.00298592844, -0.00185081188,  0.004040909
   5418, 0.00273260451, -0.00215353072,  0.004040909
   5419, 0.00311360625, -0.00231958134,  0.004040909
   5420, 0.00066264387, -0.00305879372,  0.004040909
   5421, -7.04654376e-05, -0.00386221963,  0.004040909
   5422, 0.000867682858, 0.0033219764,  0.004040909
   5423, -0.000261262147, 0.0031392735,  0.004040909
   5424, -0.00109555002, 0.00297483732,  0.004040909
   5425, -0.00307588046, -0.000184679564,  0.004040909
   5426, -0.00321494951, -0.000911038136,  0.004040909
   5427, -0.00203649863, -0.00218860968,  0.004040909
   5428, -0.000316440681, -0.00343725714,  0.004040909
   5429, 0.00252299802, -0.0012537532,  0.004040909
   5430, 0.00131519185, -0.00208483613,  0.004040909
   5431, 0.000341322564, -0.00258567906,  0.004040909
   5432, 0.00173294265, -0.000813168241,  0.004040909
   5433, 0.00230122125, -0.000936484255,  0.004040909
   5434, 0.00267677754, -0.000736731279,  0.004040909
   5435, 0.000259082415, 0.00274348469,  0.004040909
   5436, 0.000575505546, -0.00184310519,  0.004040909
   5437, -0.000623953005, 0.00253588241,  0.004040909
   5438, -0.00151159009, 0.0022516863,  0.004040909
   5439, -0.00250703539, 0.000170841202,  0.004040909
   5440, -0.00128795544, -0.00168707827,  0.004040909
   5441, 3.53105897e-05, -0.000303478009,  0.004040909
   5442, 0.000887008209, -0.000876231119,  0.004040909
   5443, -0.00198668684, 0.000639819016,  0.004040909
   5444, -0.0011102251, 0.00210071378,  0.004040909
   5445, -0.00134775729, 0.00112348737,  0.004040909
   5446, -0.000908393471, -0.00129355956,  0.004040909
   5447, -0.00042536456, -0.00114225002,  0.004040909
   5448, -0.00105097017, 0.000458524708,  0.004040909
   5449, -0.000610636838, -0.000723266741,  0.004040909
   5450, -0.000904230517, 0.00162378035,  0.004040909
   5451, -0.00150804105, 0.000569030643,  0.004040909
   5452, -0.00135324989, 0.00396553334, 0.00346363639
   5453, -0.00402056053, 0.00101029815, 0.00346363639
   5454, -0.00297016394, -0.00289217359, 0.00346363639
   5455, 0.00397308171, 0.000992201152, 0.00346363639
   5456, 0.00212350115, 0.00354511268, 0.00346363639
   5457, 0.00125990773, -0.00400250824, 0.00346363639
   5458, 0.00314467889, -0.00292053982, 0.00346363639
   5459, 0.00374832447, -0.00209765113, 0.00346363639
   5460, 0.00407549227, -0.0011225834, 0.00346363639
   5461, 0.00415758137, -6.347007e-05, 0.00346363639
   5462, 0.00409602048, 0.000468003738, 0.00346363639
   5463, 0.0037879236, 0.00149980339, 0.00346363639
   5464, 0.00325157144, 0.00243436219, 0.00346363639
   5465, 0.00253152288, 0.00322010578, 0.00346363639
   5466, 0.00169254269, 0.0038232198, 0.00346363639
   5467, 0.000712110021, 0.00416869624, 0.00346363639
   5468, -0.000841098255, 0.00411218498, 0.00346363639
   5469, -0.00274003926, 0.00317171472, 0.00346363639
   5470, -0.00347115193, 0.00247505447, 0.00346363639
   5471, -0.0038807285, 0.00153199071, 0.00346363639
   5472, -0.00414161896, -0.000574599137, 0.00346363639
   5473, -0.00387396198, -0.0015894291, 0.00346363639
   5474, -0.00332311704, -0.0024855223, 0.00346363639
   5475, -0.00166725682, -0.00383298844, 0.00346363639
   5476, -0.000695951923, -0.0042049773, 0.00346363639
   5477, 0.000772389176, -0.00419611763, 0.00346363639
   5478, 0.00175150984, -0.00376692018, 0.00346363639
   5479, 0.00271001016, -0.00320286886, 0.00346363639
   5480, 0.00348136015, -0.00254004332, 0.00346363639
   5481, 0.00394045236, -0.00162366871, 0.00346363639
   5482, 0.00414883252, -0.000596157275, 0.00346363639
   5483, 0.00351941655, 0.000324701221, 0.00346363639
   5484, 0.00204495573, 0.00282008061, 0.00346363639
   5485, -0.00282244734, -0.00216782326, 0.00346363639
   5486, -0.000771973282, 0.00357665564, 0.00346363639
   5487, -0.00333736744, 0.00136134401, 0.00346363639
   5488, 0.000988309504, -0.00351155247, 0.00346363639
   5489, 0.00055882131, -0.00375104626, 0.00346363639
   5490, 0.00291620707, -0.0026352373, 0.00346363639
   5491, 0.00245204382, -0.00265190401, 0.00346363639
   5492, 0.0017081257, 0.00312953047, 0.00346363639
   5493, 0.00320142228, 0.00125144038, 0.00346363639
   5494, 0.00344620412, -0.00153000653, 0.00346363639
   5495, 0.00361137488, -0.000615609053, 0.00346363639
   5496, 0.00354529684, 0.0019814691, 0.00346363639
   5497, 0.00291160378, 0.00284737698, 0.00346363639
   5498, -0.00256794249, -0.00325510488, 0.00346363639
   5499, 0.00121839147, 0.00404197443, 0.00346363639
   5500, -0.00362852868, -0.00204763818, 0.00346363639
   5501, -0.0018484731, 0.00375401648, 0.00346363639
   5502, -0.00411584042, 0.000482196308, 0.00346363639
   5503, -0.00312830484, 0.00284483354, 0.00346363639
   5504, -0.00370325963, 0.00202818681, 0.00346363639
   5505, -0.004051005, -0.00109450193, 0.00346363639
   5506, 0.00223719073, -0.00349180237, 0.00346363639
   5507, -0.00119344355, -0.00404366432, 0.00346363639
   5508, 0.000197806672, 0.00421733828, 0.00346363639
   5509, -0.00212981319, -0.00356914126, 0.00346363639
   5510, -0.000204375261, -0.00430176966, 0.00346363639
   5511, -0.00416028267, -4.47708662e-05, 0.00346363639
   5512, -0.00230909651, 0.00348860933, 0.00346363639
   5513, 0.0011545578, -0.0027996928, 0.00346363639
   5514, 0.00156899134, 0.00246603554, 0.00346363639
   5515, -0.00354788383, 0.000372098963, 0.00346363639
   5516, -0.00166805799, 0.00325595844, 0.00346363639
   5517, -0.00212933798, -0.00286842952, 0.00346363639
   5518, -0.0033795936, -0.00140367029, 0.00346363639
   5519, -0.00245898636, 0.00267885718, 0.00346363639
   5520, -0.00356690213, -0.0010022528, 0.00346363639
   5521, 0.00238249777, 0.00247614784, 0.00346363639
   5522, -0.00320774689, 0.00183734798, 0.00346363639
   5523, 0.00145717501, -0.00326528074, 0.00346363639
   5524, -0.00207244186, 0.0029983623, 0.00346363639
   5525, -0.00130714767, -0.00338947773, 0.00346363639
   5526, 0.000140731077, 0.00371151417, 0.00346363639
   5527, -0.00172811642, -0.0031537991, 0.00346363639
   5528, -0.00362091744, -0.000560386456, 0.00346363639
   5529, -0.00360488612, -0.000101052217, 0.00346363639
   5530, 0.00137465156, 0.00340616587, 0.00346363639
   5531, 0.00296684611, 0.0016876508, 0.00346363639
   5532, -0.00313480734, -0.000599588093, 0.00346363639
   5533, -0.00148921448, 0.00282661617, 0.00346363639
   5534, -0.00301071326, 0.000265140668, 0.00346363639
   5535, -0.00171224575, -0.00250490871, 0.00346363639
   5536, -0.00182060245, 0.00256777345, 0.00346363639
   5537, -0.00135453546, -0.0027738472, 0.00346363639
   5538,  0.001870826,  0.002135196, 0.00346363639
   5539, -0.00282380497, 0.00123672944, 0.00346363639
   5540, 0.00205148384, -0.00223219814, 0.00346363639
   5541, 0.00100395468, 0.00362518849, 0.00346363639
   5542, 0.000152082255, 0.00321342587, 0.00346363639
   5543, 0.000156014619, -0.00336919143, 0.00346363639
   5544, -0.00249434332, -0.00253175036, 0.00346363639
   5545, -0.00122060697, 0.00345152454, 0.00346363639
   5546, -0.00346104824, 0.000866823015, 0.00346363639
   5547, 0.00128685881, 0.00278062373, 0.00346363639
   5548, 0.00161891407, -0.00253219646, 0.00346363639
   5549, -0.000900272455, -0.0035955233, 0.00346363639
   5550, -0.0012980618, -0.00218321267, 0.00346363639
   5551, -0.00134095387, 0.00252467697, 0.00346363639
   5552, 0.00269140187, 0.00209695008, 0.00346363639
   5553, 0.00137190078, 0.00182387407, 0.00346363639
   5554, -0.000564105227, -0.00319002755, 0.00346363639
   5555, 0.00110149034, 0.00216783886, 0.00346363639
   5556, 0.000847242423, -0.00232953043, 0.00346363639
   5557, 0.00174873474, -0.00182702171, 0.00346363639
   5558, 0.00058890396, 0.00371043221, 0.00346363639
   5559, -0.00216334779, 0.00220700284, 0.00346363639
   5560, 0.00243393006, -0.00186947593, 0.00346363639
   5561, -0.000690910092, 0.00305446191, 0.00346363639
   5562, -0.000485159166, -0.00377474586, 0.00346363639
   5563, 0.000876111619, 0.00152649579, 0.00346363639
   5564, -0.00160967186, -0.00190408016, 0.00346363639
   5565, -0.0010938209, -0.00245171133, 0.00346363639
   5566, -0.00175259309, 0.00184043497, 0.00346363639
   5567, -0.000186767342, 0.00261800084, 0.00346363639
   5568, 0.00215857429, 0.00178177387, 0.00346363639
   5569, -0.000160787502, -0.00287347427, 0.00346363639
   5570, 0.000860432629, 0.00251776353, 0.00346363639
   5571, 0.0028853002, -0.00150461926, 0.00346363639
   5572, -0.00282635377, 0.00239056721, 0.00346363639
   5573, 0.000548588345, 0.00327916909, 0.00346363639
   5574, -0.00103522185, 0.00252056657, 0.00346363639
   5575, 0.00283275265, 0.000586048176, 0.00346363639
   5576, 0.00215272489, -0.00154284958, 0.00346363639
   5577, 0.00333265262, -0.00193863653, 0.00346363639
   5578, 0.00355281425, -0.00108770491, 0.00346363639
   5579, 0.00359481131, -0.000145130383, 0.00346363639
   5580, -0.0023359023, -0.00183082477, 0.00346363639
   5581, 0.00306482054, -0.000248516328, 0.00346363639
   5582, 0.000667472021, 0.00288068084, 0.00346363639
   5583, 0.00104305637, 0.00307724578, 0.00346363639
   5584, -0.00083199935, -0.00185014843, 0.00346363639
   5585, -0.000604834524, 0.00196997123, 0.00346363639
   5586, -0.00259547913, 0.00179638213, 0.00346363639
   5587, 3.88241388e-05, -0.00210830895, 0.00346363639
   5588, 0.00164725259, 0.00148151908, 0.00346363639
   5589, 0.00242095604, 0.00140251254, 0.00346363639
   5590, 0.000627421017, 0.00191148254, 0.00346363639
   5591, -0.0013811196,  -0.00135007, 0.00346363639
   5592, 0.00275410013, -0.00101068977, 0.00346363639
   5593, -0.00187416759, -0.00152094779, 0.00346363639
   5594, -0.00242865551, 0.00105836208, 0.00346363639
   5595, -6.0290673e-05, 0.0021352896, 0.00346363639
   5596, 0.00257243309, -0.000391532725, 0.00346363639
   5597, -0.00263268594, -0.00146373489, 0.00346363639
   5598, 0.00191721506, -0.00118202239, 0.00346363639
   5599, -0.000580140157, -0.00244367123, 0.00346363639
   5600, -0.00201350613, 0.00129957171, 0.00346363639
   5601, 0.00106725481, -0.00164589926, 0.00346363639
   5602, 0.00114658801, 0.00117507228, 0.00346363639
   5603, 0.00190618366, 0.00112789962, 0.00346363639
   5604, 0.000366628345, 0.00123818335, 0.00346363639
   5605, 0.000416493887, 0.00231370912, 0.00346363639
   5606, -0.00103527016, -0.000848668802, 0.00346363639
   5607, 0.00296931528, 0.000166841462, 0.00346363639
   5608, 0.00151707651, -0.00142398698, 0.00346363639
   5609, -0.000801510876, 0.00128439965, 0.00346363639
   5610, -0.000209167163, -0.00161284197, 0.00346363639
   5611, -0.00296090939, -0.00114833191, 0.00346363639
   5612, 0.0024549847, -1.4813204e-05, 0.00346363639
   5613, 0.000914154225, -0.00122501259, 0.00346363639
   5614, 0.00134233665, -0.00103631616, 0.00346363639
   5615, 0.00143360544, 0.000859176042, 0.00346363639
   5616, 0.00212829164, 0.000752113643, 0.00346363639
   5617, -0.00294047943, 0.000742614502, 0.00346363639
   5618, 0.00230799569, 0.000370419933, 0.00346363639
   5619, 0.00311195711, -0.000649643189, 0.00346363639
   5620, 0.00213276432, -0.000587722694, 0.00346363639
   5621, -0.000944585889, -0.00296284794, 0.00346363639
   5622, 0.000141423341, 0.00168791867, 0.00346363639
   5623, 0.000622865162, 0.000741376076, 0.00346363639
   5624, -0.000340482773, 0.00149200519, 0.00346363639
   5625, 0.000361654878, -0.0012826228, 0.00346363639
   5626, -0.0012926287, 0.00166836032, 0.00346363639
   5627, 0.000613496988, -0.000732398708, 0.00346363639
   5628, -0.000151188229, 0.0010424651, 0.00346363639
   5629, 0.00198280136, -0.000219871872, 0.00346363639
   5630, -0.000633230025, 0.000901054882, 0.00346363639
   5631, -0.00155415211, 5.21985748e-05, 0.00346363639
   5632, -0.00214766851, -0.00102410931, 0.00346363639
   5633, -0.00245067058, 0.000644518586, 0.00346363639
   5634, 0.00155171473, -0.000442923862, 0.00346363639
   5635, 0.00107027742, 0.000601972977, 0.00346363639
   5636, -0.00152497459, -0.000917053316, 0.00346363639
   5637, -0.0010117389, 0.000809108606, 0.00346363639
   5638, -0.00268690172, -0.000761706033, 0.00346363639
   5639, -0.00312115229, -0.00178152137, 0.00346363639
   5640, -5.57922613e-06, -0.000881481101, 0.00346363639
   5641, -0.00207330636, -0.000427376159, 0.00346363639
   5642, 0.00182075496, 0.000146054736, 0.00346363639
   5643, -0.000550453085, 0.000462105003, 0.00346363639
   5644, 0.00117953774, -0.000669663481, 0.00346363639
   5645, -0.0020269223, 9.98058604e-05, 0.00346363639
   5646, -0.000749598257, -0.000406963052, 0.00346363639
   5647, 0.00116893614, 0.000262420217, 0.00346363639
   5648, 0.000619583181, 5.30813522e-05, 0.00346363639
   5649, -0.00107353542, 1.94925287e-05, 0.00346363639
   5650, -1.23417567e-05, 0.000577200612, 0.00346363639
   5651, 3.34280012e-05, 8.49908902e-05, 0.00346363639
   5652, 0.00135823153, -8.93766119e-05, 0.00346363639
   5653, 0.000321388652, -0.000485395518, 0.00346363639
   5654, -0.000523946073, -4.92745166e-05, 0.00346363639
   5655, -0.00157230778, -0.000435936701, 0.00346363639
   5656, 0.000943185936, -0.000345294422, 0.00346363639
   5657, 0.00164351484, 0.000501646835, 0.00346363639
   5658, 0.00264639547, 0.000999862212, 0.00346363639
   5659, -0.0011104648, -0.000411461981, 0.00346363639
   5660, -0.00257178117, -0.000312425283, 0.00346363639
   5661, -0.000269917189, -0.000500896305, 0.00346363639
   5662, -0.000318563427, 0.00419643195, 0.00346363639
   5663, 0.000291611359, -0.00431829831, 0.00346363639
   5664, 0.00338417524, 0.000793792715, 0.00346363639
   5665, -0.00030827726, 0.00366496085, 0.00346363639
   5666, -0.00315928599, 0.00223519979, 0.00346363639
   5667, 0.000259194087, -0.00397536671, 0.00346363639
   5668, 0.00193770218, -0.00298756175, 0.00346363639
   5669, 0.00307746138, -0.00106590847, 0.00346363639
   5670, 0.00298592844, -0.00185081188, 0.00346363639
   5671, 0.00273260451, -0.00215353072, 0.00346363639
   5672, 0.00311360625, -0.00231958134, 0.00346363639
   5673, 0.00066264387, -0.00305879372, 0.00346363639
   5674, -7.04654376e-05, -0.00386221963, 0.00346363639
   5675, 0.000867682858, 0.0033219764, 0.00346363639
   5676, -0.000261262147, 0.0031392735, 0.00346363639
   5677, -0.00109555002, 0.00297483732, 0.00346363639
   5678, -0.00307588046, -0.000184679564, 0.00346363639
   5679, -0.00321494951, -0.000911038136, 0.00346363639
   5680, -0.00203649863, -0.00218860968, 0.00346363639
   5681, -0.000316440681, -0.00343725714, 0.00346363639
   5682, 0.00252299802, -0.0012537532, 0.00346363639
   5683, 0.00131519185, -0.00208483613, 0.00346363639
   5684, 0.000341322564, -0.00258567906, 0.00346363639
   5685, 0.00173294265, -0.000813168241, 0.00346363639
   5686, 0.00230122125, -0.000936484255, 0.00346363639
   5687, 0.00267677754, -0.000736731279, 0.00346363639
   5688, 0.000259082415, 0.00274348469, 0.00346363639
   5689, 0.000575505546, -0.00184310519, 0.00346363639
   5690, -0.000623953005, 0.00253588241, 0.00346363639
   5691, -0.00151159009, 0.0022516863, 0.00346363639
   5692, -0.00250703539, 0.000170841202, 0.00346363639
   5693, -0.00128795544, -0.00168707827, 0.00346363639
   5694, 3.53105897e-05, -0.000303478009, 0.00346363639
   5695, 0.000887008209, -0.000876231119, 0.00346363639
   5696, -0.00198668684, 0.000639819016, 0.00346363639
   5697, -0.0011102251, 0.00210071378, 0.00346363639
   5698, -0.00134775729, 0.00112348737, 0.00346363639
   5699, -0.000908393471, -0.00129355956, 0.00346363639
   5700, -0.00042536456, -0.00114225002, 0.00346363639
   5701, -0.00105097017, 0.000458524708, 0.00346363639
   5702, -0.000610636838, -0.000723266741, 0.00346363639
   5703, -0.000904230517, 0.00162378035, 0.00346363639
   5704, -0.00150804105, 0.000569030643, 0.00346363639
   5705, -0.00135324989, 0.00396553334, 0.00288636354
   5706, -0.00402056053, 0.00101029815, 0.00288636354
   5707, -0.00297016394, -0.00289217359, 0.00288636354
   5708, 0.00397308171, 0.000992201152, 0.00288636354
   5709, 0.00212350115, 0.00354511268, 0.00288636354
   5710, 0.00125990773, -0.00400250824, 0.00288636354
   5711, 0.00314467889, -0.00292053982, 0.00288636354
   5712, 0.00374832447, -0.00209765113, 0.00288636354
   5713, 0.00407549227, -0.0011225834, 0.00288636354
   5714, 0.00415758137, -6.347007e-05, 0.00288636354
   5715, 0.00409602048, 0.000468003738, 0.00288636354
   5716, 0.0037879236, 0.00149980339, 0.00288636354
   5717, 0.00325157144, 0.00243436219, 0.00288636354
   5718, 0.00253152288, 0.00322010578, 0.00288636354
   5719, 0.00169254269, 0.0038232198, 0.00288636354
   5720, 0.000712110021, 0.00416869624, 0.00288636354
   5721, -0.000841098255, 0.00411218498, 0.00288636354
   5722, -0.00274003926, 0.00317171472, 0.00288636354
   5723, -0.00347115193, 0.00247505447, 0.00288636354
   5724, -0.0038807285, 0.00153199071, 0.00288636354
   5725, -0.00414161896, -0.000574599137, 0.00288636354
   5726, -0.00387396198, -0.0015894291, 0.00288636354
   5727, -0.00332311704, -0.0024855223, 0.00288636354
   5728, -0.00166725682, -0.00383298844, 0.00288636354
   5729, -0.000695951923, -0.0042049773, 0.00288636354
   5730, 0.000772389176, -0.00419611763, 0.00288636354
   5731, 0.00175150984, -0.00376692018, 0.00288636354
   5732, 0.00271001016, -0.00320286886, 0.00288636354
   5733, 0.00348136015, -0.00254004332, 0.00288636354
   5734, 0.00394045236, -0.00162366871, 0.00288636354
   5735, 0.00414883252, -0.000596157275, 0.00288636354
   5736, 0.00351941655, 0.000324701221, 0.00288636354
   5737, 0.00204495573, 0.00282008061, 0.00288636354
   5738, -0.00282244734, -0.00216782326, 0.00288636354
   5739, -0.000771973282, 0.00357665564, 0.00288636354
   5740, -0.00333736744, 0.00136134401, 0.00288636354
   5741, 0.000988309504, -0.00351155247, 0.00288636354
   5742, 0.00055882131, -0.00375104626, 0.00288636354
   5743, 0.00291620707, -0.0026352373, 0.00288636354
   5744, 0.00245204382, -0.00265190401, 0.00288636354
   5745, 0.0017081257, 0.00312953047, 0.00288636354
   5746, 0.00320142228, 0.00125144038, 0.00288636354
   5747, 0.00344620412, -0.00153000653, 0.00288636354
   5748, 0.00361137488, -0.000615609053, 0.00288636354
   5749, 0.00354529684, 0.0019814691, 0.00288636354
   5750, 0.00291160378, 0.00284737698, 0.00288636354
   5751, -0.00256794249, -0.00325510488, 0.00288636354
   5752, 0.00121839147, 0.00404197443, 0.00288636354
   5753, -0.00362852868, -0.00204763818, 0.00288636354
   5754, -0.0018484731, 0.00375401648, 0.00288636354
   5755, -0.00411584042, 0.000482196308, 0.00288636354
   5756, -0.00312830484, 0.00284483354, 0.00288636354
   5757, -0.00370325963, 0.00202818681, 0.00288636354
   5758, -0.004051005, -0.00109450193, 0.00288636354
   5759, 0.00223719073, -0.00349180237, 0.00288636354
   5760, -0.00119344355, -0.00404366432, 0.00288636354
   5761, 0.000197806672, 0.00421733828, 0.00288636354
   5762, -0.00212981319, -0.00356914126, 0.00288636354
   5763, -0.000204375261, -0.00430176966, 0.00288636354
   5764, -0.00416028267, -4.47708662e-05, 0.00288636354
   5765, -0.00230909651, 0.00348860933, 0.00288636354
   5766, 0.0011545578, -0.0027996928, 0.00288636354
   5767, 0.00156899134, 0.00246603554, 0.00288636354
   5768, -0.00354788383, 0.000372098963, 0.00288636354
   5769, -0.00166805799, 0.00325595844, 0.00288636354
   5770, -0.00212933798, -0.00286842952, 0.00288636354
   5771, -0.0033795936, -0.00140367029, 0.00288636354
   5772, -0.00245898636, 0.00267885718, 0.00288636354
   5773, -0.00356690213, -0.0010022528, 0.00288636354
   5774, 0.00238249777, 0.00247614784, 0.00288636354
   5775, -0.00320774689, 0.00183734798, 0.00288636354
   5776, 0.00145717501, -0.00326528074, 0.00288636354
   5777, -0.00207244186, 0.0029983623, 0.00288636354
   5778, -0.00130714767, -0.00338947773, 0.00288636354
   5779, 0.000140731077, 0.00371151417, 0.00288636354
   5780, -0.00172811642, -0.0031537991, 0.00288636354
   5781, -0.00362091744, -0.000560386456, 0.00288636354
   5782, -0.00360488612, -0.000101052217, 0.00288636354
   5783, 0.00137465156, 0.00340616587, 0.00288636354
   5784, 0.00296684611, 0.0016876508, 0.00288636354
   5785, -0.00313480734, -0.000599588093, 0.00288636354
   5786, -0.00148921448, 0.00282661617, 0.00288636354
   5787, -0.00301071326, 0.000265140668, 0.00288636354
   5788, -0.00171224575, -0.00250490871, 0.00288636354
   5789, -0.00182060245, 0.00256777345, 0.00288636354
   5790, -0.00135453546, -0.0027738472, 0.00288636354
   5791,  0.001870826,  0.002135196, 0.00288636354
   5792, -0.00282380497, 0.00123672944, 0.00288636354
   5793, 0.00205148384, -0.00223219814, 0.00288636354
   5794, 0.00100395468, 0.00362518849, 0.00288636354
   5795, 0.000152082255, 0.00321342587, 0.00288636354
   5796, 0.000156014619, -0.00336919143, 0.00288636354
   5797, -0.00249434332, -0.00253175036, 0.00288636354
   5798, -0.00122060697, 0.00345152454, 0.00288636354
   5799, -0.00346104824, 0.000866823015, 0.00288636354
   5800, 0.00128685881, 0.00278062373, 0.00288636354
   5801, 0.00161891407, -0.00253219646, 0.00288636354
   5802, -0.000900272455, -0.0035955233, 0.00288636354
   5803, -0.0012980618, -0.00218321267, 0.00288636354
   5804, -0.00134095387, 0.00252467697, 0.00288636354
   5805, 0.00269140187, 0.00209695008, 0.00288636354
   5806, 0.00137190078, 0.00182387407, 0.00288636354
   5807, -0.000564105227, -0.00319002755, 0.00288636354
   5808, 0.00110149034, 0.00216783886, 0.00288636354
   5809, 0.000847242423, -0.00232953043, 0.00288636354
   5810, 0.00174873474, -0.00182702171, 0.00288636354
   5811, 0.00058890396, 0.00371043221, 0.00288636354
   5812, -0.00216334779, 0.00220700284, 0.00288636354
   5813, 0.00243393006, -0.00186947593, 0.00288636354
   5814, -0.000690910092, 0.00305446191, 0.00288636354
   5815, -0.000485159166, -0.00377474586, 0.00288636354
   5816, 0.000876111619, 0.00152649579, 0.00288636354
   5817, -0.00160967186, -0.00190408016, 0.00288636354
   5818, -0.0010938209, -0.00245171133, 0.00288636354
   5819, -0.00175259309, 0.00184043497, 0.00288636354
   5820, -0.000186767342, 0.00261800084, 0.00288636354
   5821, 0.00215857429, 0.00178177387, 0.00288636354
   5822, -0.000160787502, -0.00287347427, 0.00288636354
   5823, 0.000860432629, 0.00251776353, 0.00288636354
   5824, 0.0028853002, -0.00150461926, 0.00288636354
   5825, -0.00282635377, 0.00239056721, 0.00288636354
   5826, 0.000548588345, 0.00327916909, 0.00288636354
   5827, -0.00103522185, 0.00252056657, 0.00288636354
   5828, 0.00283275265, 0.000586048176, 0.00288636354
   5829, 0.00215272489, -0.00154284958, 0.00288636354
   5830, 0.00333265262, -0.00193863653, 0.00288636354
   5831, 0.00355281425, -0.00108770491, 0.00288636354
   5832, 0.00359481131, -0.000145130383, 0.00288636354
   5833, -0.0023359023, -0.00183082477, 0.00288636354
   5834, 0.00306482054, -0.000248516328, 0.00288636354
   5835, 0.000667472021, 0.00288068084, 0.00288636354
   5836, 0.00104305637, 0.00307724578, 0.00288636354
   5837, -0.00083199935, -0.00185014843, 0.00288636354
   5838, -0.000604834524, 0.00196997123, 0.00288636354
   5839, -0.00259547913, 0.00179638213, 0.00288636354
   5840, 3.88241388e-05, -0.00210830895, 0.00288636354
   5841, 0.00164725259, 0.00148151908, 0.00288636354
   5842, 0.00242095604, 0.00140251254, 0.00288636354
   5843, 0.000627421017, 0.00191148254, 0.00288636354
   5844, -0.0013811196,  -0.00135007, 0.00288636354
   5845, 0.00275410013, -0.00101068977, 0.00288636354
   5846, -0.00187416759, -0.00152094779, 0.00288636354
   5847, -0.00242865551, 0.00105836208, 0.00288636354
   5848, -6.0290673e-05, 0.0021352896, 0.00288636354
   5849, 0.00257243309, -0.000391532725, 0.00288636354
   5850, -0.00263268594, -0.00146373489, 0.00288636354
   5851, 0.00191721506, -0.00118202239, 0.00288636354
   5852, -0.000580140157, -0.00244367123, 0.00288636354
   5853, -0.00201350613, 0.00129957171, 0.00288636354
   5854, 0.00106725481, -0.00164589926, 0.00288636354
   5855, 0.00114658801, 0.00117507228, 0.00288636354
   5856, 0.00190618366, 0.00112789962, 0.00288636354
   5857, 0.000366628345, 0.00123818335, 0.00288636354
   5858, 0.000416493887, 0.00231370912, 0.00288636354
   5859, -0.00103527016, -0.000848668802, 0.00288636354
   5860, 0.00296931528, 0.000166841462, 0.00288636354
   5861, 0.00151707651, -0.00142398698, 0.00288636354
   5862, -0.000801510876, 0.00128439965, 0.00288636354
   5863, -0.000209167163, -0.00161284197, 0.00288636354
   5864, -0.00296090939, -0.00114833191, 0.00288636354
   5865, 0.0024549847, -1.4813204e-05, 0.00288636354
   5866, 0.000914154225, -0.00122501259, 0.00288636354
   5867, 0.00134233665, -0.00103631616, 0.00288636354
   5868, 0.00143360544, 0.000859176042, 0.00288636354
   5869, 0.00212829164, 0.000752113643, 0.00288636354
   5870, -0.00294047943, 0.000742614502, 0.00288636354
   5871, 0.00230799569, 0.000370419933, 0.00288636354
   5872, 0.00311195711, -0.000649643189, 0.00288636354
   5873, 0.00213276432, -0.000587722694, 0.00288636354
   5874, -0.000944585889, -0.00296284794, 0.00288636354
   5875, 0.000141423341, 0.00168791867, 0.00288636354
   5876, 0.000622865162, 0.000741376076, 0.00288636354
   5877, -0.000340482773, 0.00149200519, 0.00288636354
   5878, 0.000361654878, -0.0012826228, 0.00288636354
   5879, -0.0012926287, 0.00166836032, 0.00288636354
   5880, 0.000613496988, -0.000732398708, 0.00288636354
   5881, -0.000151188229, 0.0010424651, 0.00288636354
   5882, 0.00198280136, -0.000219871872, 0.00288636354
   5883, -0.000633230025, 0.000901054882, 0.00288636354
   5884, -0.00155415211, 5.21985748e-05, 0.00288636354
   5885, -0.00214766851, -0.00102410931, 0.00288636354
   5886, -0.00245067058, 0.000644518586, 0.00288636354
   5887, 0.00155171473, -0.000442923862, 0.00288636354
   5888, 0.00107027742, 0.000601972977, 0.00288636354
   5889, -0.00152497459, -0.000917053316, 0.00288636354
   5890, -0.0010117389, 0.000809108606, 0.00288636354
   5891, -0.00268690172, -0.000761706033, 0.00288636354
   5892, -0.00312115229, -0.00178152137, 0.00288636354
   5893, -5.57922613e-06, -0.000881481101, 0.00288636354
   5894, -0.00207330636, -0.000427376159, 0.00288636354
   5895, 0.00182075496, 0.000146054736, 0.00288636354
   5896, -0.000550453085, 0.000462105003, 0.00288636354
   5897, 0.00117953774, -0.000669663481, 0.00288636354
   5898, -0.0020269223, 9.98058604e-05, 0.00288636354
   5899, -0.000749598257, -0.000406963052, 0.00288636354
   5900, 0.00116893614, 0.000262420217, 0.00288636354
   5901, 0.000619583181, 5.30813522e-05, 0.00288636354
   5902, -0.00107353542, 1.94925287e-05, 0.00288636354
   5903, -1.23417567e-05, 0.000577200612, 0.00288636354
   5904, 3.34280012e-05, 8.49908902e-05, 0.00288636354
   5905, 0.00135823153, -8.93766119e-05, 0.00288636354
   5906, 0.000321388652, -0.000485395518, 0.00288636354
   5907, -0.000523946073, -4.92745166e-05, 0.00288636354
   5908, -0.00157230778, -0.000435936701, 0.00288636354
   5909, 0.000943185936, -0.000345294422, 0.00288636354
   5910, 0.00164351484, 0.000501646835, 0.00288636354
   5911, 0.00264639547, 0.000999862212, 0.00288636354
   5912, -0.0011104648, -0.000411461981, 0.00288636354
   5913, -0.00257178117, -0.000312425283, 0.00288636354
   5914, -0.000269917189, -0.000500896305, 0.00288636354
   5915, -0.000318563427, 0.00419643195, 0.00288636354
   5916, 0.000291611359, -0.00431829831, 0.00288636354
   5917, 0.00338417524, 0.000793792715, 0.00288636354
   5918, -0.00030827726, 0.00366496085, 0.00288636354
   5919, -0.00315928599, 0.00223519979, 0.00288636354
   5920, 0.000259194087, -0.00397536671, 0.00288636354
   5921, 0.00193770218, -0.00298756175, 0.00288636354
   5922, 0.00307746138, -0.00106590847, 0.00288636354
   5923, 0.00298592844, -0.00185081188, 0.00288636354
   5924, 0.00273260451, -0.00215353072, 0.00288636354
   5925, 0.00311360625, -0.00231958134, 0.00288636354
   5926, 0.00066264387, -0.00305879372, 0.00288636354
   5927, -7.04654376e-05, -0.00386221963, 0.00288636354
   5928, 0.000867682858, 0.0033219764, 0.00288636354
   5929, -0.000261262147, 0.0031392735, 0.00288636354
   5930, -0.00109555002, 0.00297483732, 0.00288636354
   5931, -0.00307588046, -0.000184679564, 0.00288636354
   5932, -0.00321494951, -0.000911038136, 0.00288636354
   5933, -0.00203649863, -0.00218860968, 0.00288636354
   5934, -0.000316440681, -0.00343725714, 0.00288636354
   5935, 0.00252299802, -0.0012537532, 0.00288636354
   5936, 0.00131519185, -0.00208483613, 0.00288636354
   5937, 0.000341322564, -0.00258567906, 0.00288636354
   5938, 0.00173294265, -0.000813168241, 0.00288636354
   5939, 0.00230122125, -0.000936484255, 0.00288636354
   5940, 0.00267677754, -0.000736731279, 0.00288636354
   5941, 0.000259082415, 0.00274348469, 0.00288636354
   5942, 0.000575505546, -0.00184310519, 0.00288636354
   5943, -0.000623953005, 0.00253588241, 0.00288636354
   5944, -0.00151159009, 0.0022516863, 0.00288636354
   5945, -0.00250703539, 0.000170841202, 0.00288636354
   5946, -0.00128795544, -0.00168707827, 0.00288636354
   5947, 3.53105897e-05, -0.000303478009, 0.00288636354
   5948, 0.000887008209, -0.000876231119, 0.00288636354
   5949, -0.00198668684, 0.000639819016, 0.00288636354
   5950, -0.0011102251, 0.00210071378, 0.00288636354
   5951, -0.00134775729, 0.00112348737, 0.00288636354
   5952, -0.000908393471, -0.00129355956, 0.00288636354
   5953, -0.00042536456, -0.00114225002, 0.00288636354
   5954, -0.00105097017, 0.000458524708, 0.00288636354
   5955, -0.000610636838, -0.000723266741, 0.00288636354
   5956, -0.000904230517, 0.00162378035, 0.00288636354
   5957, -0.00150804105, 0.000569030643, 0.00288636354
   5958, -0.00135324989, 0.00396553334, 0.00230909092
   5959, -0.00402056053, 0.00101029815, 0.00230909092
   5960, -0.00297016394, -0.00289217359, 0.00230909092
   5961, 0.00397308171, 0.000992201152, 0.00230909092
   5962, 0.00212350115, 0.00354511268, 0.00230909092
   5963, 0.00125990773, -0.00400250824, 0.00230909092
   5964, 0.00314467889, -0.00292053982, 0.00230909092
   5965, 0.00374832447, -0.00209765113, 0.00230909092
   5966, 0.00407549227, -0.0011225834, 0.00230909092
   5967, 0.00415758137, -6.347007e-05, 0.00230909092
   5968, 0.00409602048, 0.000468003738, 0.00230909092
   5969, 0.0037879236, 0.00149980339, 0.00230909092
   5970, 0.00325157144, 0.00243436219, 0.00230909092
   5971, 0.00253152288, 0.00322010578, 0.00230909092
   5972, 0.00169254269, 0.0038232198, 0.00230909092
   5973, 0.000712110021, 0.00416869624, 0.00230909092
   5974, -0.000841098255, 0.00411218498, 0.00230909092
   5975, -0.00274003926, 0.00317171472, 0.00230909092
   5976, -0.00347115193, 0.00247505447, 0.00230909092
   5977, -0.0038807285, 0.00153199071, 0.00230909092
   5978, -0.00414161896, -0.000574599137, 0.00230909092
   5979, -0.00387396198, -0.0015894291, 0.00230909092
   5980, -0.00332311704, -0.0024855223, 0.00230909092
   5981, -0.00166725682, -0.00383298844, 0.00230909092
   5982, -0.000695951923, -0.0042049773, 0.00230909092
   5983, 0.000772389176, -0.00419611763, 0.00230909092
   5984, 0.00175150984, -0.00376692018, 0.00230909092
   5985, 0.00271001016, -0.00320286886, 0.00230909092
   5986, 0.00348136015, -0.00254004332, 0.00230909092
   5987, 0.00394045236, -0.00162366871, 0.00230909092
   5988, 0.00414883252, -0.000596157275, 0.00230909092
   5989, 0.00351941655, 0.000324701221, 0.00230909092
   5990, 0.00204495573, 0.00282008061, 0.00230909092
   5991, -0.00282244734, -0.00216782326, 0.00230909092
   5992, -0.000771973282, 0.00357665564, 0.00230909092
   5993, -0.00333736744, 0.00136134401, 0.00230909092
   5994, 0.000988309504, -0.00351155247, 0.00230909092
   5995, 0.00055882131, -0.00375104626, 0.00230909092
   5996, 0.00291620707, -0.0026352373, 0.00230909092
   5997, 0.00245204382, -0.00265190401, 0.00230909092
   5998, 0.0017081257, 0.00312953047, 0.00230909092
   5999, 0.00320142228, 0.00125144038, 0.00230909092
   6000, 0.00344620412, -0.00153000653, 0.00230909092
   6001, 0.00361137488, -0.000615609053, 0.00230909092
   6002, 0.00354529684, 0.0019814691, 0.00230909092
   6003, 0.00291160378, 0.00284737698, 0.00230909092
   6004, -0.00256794249, -0.00325510488, 0.00230909092
   6005, 0.00121839147, 0.00404197443, 0.00230909092
   6006, -0.00362852868, -0.00204763818, 0.00230909092
   6007, -0.0018484731, 0.00375401648, 0.00230909092
   6008, -0.00411584042, 0.000482196308, 0.00230909092
   6009, -0.00312830484, 0.00284483354, 0.00230909092
   6010, -0.00370325963, 0.00202818681, 0.00230909092
   6011, -0.004051005, -0.00109450193, 0.00230909092
   6012, 0.00223719073, -0.00349180237, 0.00230909092
   6013, -0.00119344355, -0.00404366432, 0.00230909092
   6014, 0.000197806672, 0.00421733828, 0.00230909092
   6015, -0.00212981319, -0.00356914126, 0.00230909092
   6016, -0.000204375261, -0.00430176966, 0.00230909092
   6017, -0.00416028267, -4.47708662e-05, 0.00230909092
   6018, -0.00230909651, 0.00348860933, 0.00230909092
   6019, 0.0011545578, -0.0027996928, 0.00230909092
   6020, 0.00156899134, 0.00246603554, 0.00230909092
   6021, -0.00354788383, 0.000372098963, 0.00230909092
   6022, -0.00166805799, 0.00325595844, 0.00230909092
   6023, -0.00212933798, -0.00286842952, 0.00230909092
   6024, -0.0033795936, -0.00140367029, 0.00230909092
   6025, -0.00245898636, 0.00267885718, 0.00230909092
   6026, -0.00356690213, -0.0010022528, 0.00230909092
   6027, 0.00238249777, 0.00247614784, 0.00230909092
   6028, -0.00320774689, 0.00183734798, 0.00230909092
   6029, 0.00145717501, -0.00326528074, 0.00230909092
   6030, -0.00207244186, 0.0029983623, 0.00230909092
   6031, -0.00130714767, -0.00338947773, 0.00230909092
   6032, 0.000140731077, 0.00371151417, 0.00230909092
   6033, -0.00172811642, -0.0031537991, 0.00230909092
   6034, -0.00362091744, -0.000560386456, 0.00230909092
   6035, -0.00360488612, -0.000101052217, 0.00230909092
   6036, 0.00137465156, 0.00340616587, 0.00230909092
   6037, 0.00296684611, 0.0016876508, 0.00230909092
   6038, -0.00313480734, -0.000599588093, 0.00230909092
   6039, -0.00148921448, 0.00282661617, 0.00230909092
   6040, -0.00301071326, 0.000265140668, 0.00230909092
   6041, -0.00171224575, -0.00250490871, 0.00230909092
   6042, -0.00182060245, 0.00256777345, 0.00230909092
   6043, -0.00135453546, -0.0027738472, 0.00230909092
   6044,  0.001870826,  0.002135196, 0.00230909092
   6045, -0.00282380497, 0.00123672944, 0.00230909092
   6046, 0.00205148384, -0.00223219814, 0.00230909092
   6047, 0.00100395468, 0.00362518849, 0.00230909092
   6048, 0.000152082255, 0.00321342587, 0.00230909092
   6049, 0.000156014619, -0.00336919143, 0.00230909092
   6050, -0.00249434332, -0.00253175036, 0.00230909092
   6051, -0.00122060697, 0.00345152454, 0.00230909092
   6052, -0.00346104824, 0.000866823015, 0.00230909092
   6053, 0.00128685881, 0.00278062373, 0.00230909092
   6054, 0.00161891407, -0.00253219646, 0.00230909092
   6055, -0.000900272455, -0.0035955233, 0.00230909092
   6056, -0.0012980618, -0.00218321267, 0.00230909092
   6057, -0.00134095387, 0.00252467697, 0.00230909092
   6058, 0.00269140187, 0.00209695008, 0.00230909092
   6059, 0.00137190078, 0.00182387407, 0.00230909092
   6060, -0.000564105227, -0.00319002755, 0.00230909092
   6061, 0.00110149034, 0.00216783886, 0.00230909092
   6062, 0.000847242423, -0.00232953043, 0.00230909092
   6063, 0.00174873474, -0.00182702171, 0.00230909092
   6064, 0.00058890396, 0.00371043221, 0.00230909092
   6065, -0.00216334779, 0.00220700284, 0.00230909092
   6066, 0.00243393006, -0.00186947593, 0.00230909092
   6067, -0.000690910092, 0.00305446191, 0.00230909092
   6068, -0.000485159166, -0.00377474586, 0.00230909092
   6069, 0.000876111619, 0.00152649579, 0.00230909092
   6070, -0.00160967186, -0.00190408016, 0.00230909092
   6071, -0.0010938209, -0.00245171133, 0.00230909092
   6072, -0.00175259309, 0.00184043497, 0.00230909092
   6073, -0.000186767342, 0.00261800084, 0.00230909092
   6074, 0.00215857429, 0.00178177387, 0.00230909092
   6075, -0.000160787502, -0.00287347427, 0.00230909092
   6076, 0.000860432629, 0.00251776353, 0.00230909092
   6077, 0.0028853002, -0.00150461926, 0.00230909092
   6078, -0.00282635377, 0.00239056721, 0.00230909092
   6079, 0.000548588345, 0.00327916909, 0.00230909092
   6080, -0.00103522185, 0.00252056657, 0.00230909092
   6081, 0.00283275265, 0.000586048176, 0.00230909092
   6082, 0.00215272489, -0.00154284958, 0.00230909092
   6083, 0.00333265262, -0.00193863653, 0.00230909092
   6084, 0.00355281425, -0.00108770491, 0.00230909092
   6085, 0.00359481131, -0.000145130383, 0.00230909092
   6086, -0.0023359023, -0.00183082477, 0.00230909092
   6087, 0.00306482054, -0.000248516328, 0.00230909092
   6088, 0.000667472021, 0.00288068084, 0.00230909092
   6089, 0.00104305637, 0.00307724578, 0.00230909092
   6090, -0.00083199935, -0.00185014843, 0.00230909092
   6091, -0.000604834524, 0.00196997123, 0.00230909092
   6092, -0.00259547913, 0.00179638213, 0.00230909092
   6093, 3.88241388e-05, -0.00210830895, 0.00230909092
   6094, 0.00164725259, 0.00148151908, 0.00230909092
   6095, 0.00242095604, 0.00140251254, 0.00230909092
   6096, 0.000627421017, 0.00191148254, 0.00230909092
   6097, -0.0013811196,  -0.00135007, 0.00230909092
   6098, 0.00275410013, -0.00101068977, 0.00230909092
   6099, -0.00187416759, -0.00152094779, 0.00230909092
   6100, -0.00242865551, 0.00105836208, 0.00230909092
   6101, -6.0290673e-05, 0.0021352896, 0.00230909092
   6102, 0.00257243309, -0.000391532725, 0.00230909092
   6103, -0.00263268594, -0.00146373489, 0.00230909092
   6104, 0.00191721506, -0.00118202239, 0.00230909092
   6105, -0.000580140157, -0.00244367123, 0.00230909092
   6106, -0.00201350613, 0.00129957171, 0.00230909092
   6107, 0.00106725481, -0.00164589926, 0.00230909092
   6108, 0.00114658801, 0.00117507228, 0.00230909092
   6109, 0.00190618366, 0.00112789962, 0.00230909092
   6110, 0.000366628345, 0.00123818335, 0.00230909092
   6111, 0.000416493887, 0.00231370912, 0.00230909092
   6112, -0.00103527016, -0.000848668802, 0.00230909092
   6113, 0.00296931528, 0.000166841462, 0.00230909092
   6114, 0.00151707651, -0.00142398698, 0.00230909092
   6115, -0.000801510876, 0.00128439965, 0.00230909092
   6116, -0.000209167163, -0.00161284197, 0.00230909092
   6117, -0.00296090939, -0.00114833191, 0.00230909092
   6118, 0.0024549847, -1.4813204e-05, 0.00230909092
   6119, 0.000914154225, -0.00122501259, 0.00230909092
   6120, 0.00134233665, -0.00103631616, 0.00230909092
   6121, 0.00143360544, 0.000859176042, 0.00230909092
   6122, 0.00212829164, 0.000752113643, 0.00230909092
   6123, -0.00294047943, 0.000742614502, 0.00230909092
   6124, 0.00230799569, 0.000370419933, 0.00230909092
   6125, 0.00311195711, -0.000649643189, 0.00230909092
   6126, 0.00213276432, -0.000587722694, 0.00230909092
   6127, -0.000944585889, -0.00296284794, 0.00230909092
   6128, 0.000141423341, 0.00168791867, 0.00230909092
   6129, 0.000622865162, 0.000741376076, 0.00230909092
   6130, -0.000340482773, 0.00149200519, 0.00230909092
   6131, 0.000361654878, -0.0012826228, 0.00230909092
   6132, -0.0012926287, 0.00166836032, 0.00230909092
   6133, 0.000613496988, -0.000732398708, 0.00230909092
   6134, -0.000151188229, 0.0010424651, 0.00230909092
   6135, 0.00198280136, -0.000219871872, 0.00230909092
   6136, -0.000633230025, 0.000901054882, 0.00230909092
   6137, -0.00155415211, 5.21985748e-05, 0.00230909092
   6138, -0.00214766851, -0.00102410931, 0.00230909092
   6139, -0.00245067058, 0.000644518586, 0.00230909092
   6140, 0.00155171473, -0.000442923862, 0.00230909092
   6141, 0.00107027742, 0.000601972977, 0.00230909092
   6142, -0.00152497459, -0.000917053316, 0.00230909092
   6143, -0.0010117389, 0.000809108606, 0.00230909092
   6144, -0.00268690172, -0.000761706033, 0.00230909092
   6145, -0.00312115229, -0.00178152137, 0.00230909092
   6146, -5.57922613e-06, -0.000881481101, 0.00230909092
   6147, -0.00207330636, -0.000427376159, 0.00230909092
   6148, 0.00182075496, 0.000146054736, 0.00230909092
   6149, -0.000550453085, 0.000462105003, 0.00230909092
   6150, 0.00117953774, -0.000669663481, 0.00230909092
   6151, -0.0020269223, 9.98058604e-05, 0.00230909092
   6152, -0.000749598257, -0.000406963052, 0.00230909092
   6153, 0.00116893614, 0.000262420217, 0.00230909092
   6154, 0.000619583181, 5.30813522e-05, 0.00230909092
   6155, -0.00107353542, 1.94925287e-05, 0.00230909092
   6156, -1.23417567e-05, 0.000577200612, 0.00230909092
   6157, 3.34280012e-05, 8.49908902e-05, 0.00230909092
   6158, 0.00135823153, -8.93766119e-05, 0.00230909092
   6159, 0.000321388652, -0.000485395518, 0.00230909092
   6160, -0.000523946073, -4.92745166e-05, 0.00230909092
   6161, -0.00157230778, -0.000435936701, 0.00230909092
   6162, 0.000943185936, -0.000345294422, 0.00230909092
   6163, 0.00164351484, 0.000501646835, 0.00230909092
   6164, 0.00264639547, 0.000999862212, 0.00230909092
   6165, -0.0011104648, -0.000411461981, 0.00230909092
   6166, -0.00257178117, -0.000312425283, 0.00230909092
   6167, -0.000269917189, -0.000500896305, 0.00230909092
   6168, -0.000318563427, 0.00419643195, 0.00230909092
   6169, 0.000291611359, -0.00431829831, 0.00230909092
   6170, 0.00338417524, 0.000793792715, 0.00230909092
   6171, -0.00030827726, 0.00366496085, 0.00230909092
   6172, -0.00315928599, 0.00223519979, 0.00230909092
   6173, 0.000259194087, -0.00397536671, 0.00230909092
   6174, 0.00193770218, -0.00298756175, 0.00230909092
   6175, 0.00307746138, -0.00106590847, 0.00230909092
   6176, 0.00298592844, -0.00185081188, 0.00230909092
   6177, 0.00273260451, -0.00215353072, 0.00230909092
   6178, 0.00311360625, -0.00231958134, 0.00230909092
   6179, 0.00066264387, -0.00305879372, 0.00230909092
   6180, -7.04654376e-05, -0.00386221963, 0.00230909092
   6181, 0.000867682858, 0.0033219764, 0.00230909092
   6182, -0.000261262147, 0.0031392735, 0.00230909092
   6183, -0.00109555002, 0.00297483732, 0.00230909092
   6184, -0.00307588046, -0.000184679564, 0.00230909092
   6185, -0.00321494951, -0.000911038136, 0.00230909092
   6186, -0.00203649863, -0.00218860968, 0.00230909092
   6187, -0.000316440681, -0.00343725714, 0.00230909092
   6188, 0.00252299802, -0.0012537532, 0.00230909092
   6189, 0.00131519185, -0.00208483613, 0.00230909092
   6190, 0.000341322564, -0.00258567906, 0.00230909092
   6191, 0.00173294265, -0.000813168241, 0.00230909092
   6192, 0.00230122125, -0.000936484255, 0.00230909092
   6193, 0.00267677754, -0.000736731279, 0.00230909092
   6194, 0.000259082415, 0.00274348469, 0.00230909092
   6195, 0.000575505546, -0.00184310519, 0.00230909092
   6196, -0.000623953005, 0.00253588241, 0.00230909092
   6197, -0.00151159009, 0.0022516863, 0.00230909092
   6198, -0.00250703539, 0.000170841202, 0.00230909092
   6199, -0.00128795544, -0.00168707827, 0.00230909092
   6200, 3.53105897e-05, -0.000303478009, 0.00230909092
   6201, 0.000887008209, -0.000876231119, 0.00230909092
   6202, -0.00198668684, 0.000639819016, 0.00230909092
   6203, -0.0011102251, 0.00210071378, 0.00230909092
   6204, -0.00134775729, 0.00112348737, 0.00230909092
   6205, -0.000908393471, -0.00129355956, 0.00230909092
   6206, -0.00042536456, -0.00114225002, 0.00230909092
   6207, -0.00105097017, 0.000458524708, 0.00230909092
   6208, -0.000610636838, -0.000723266741, 0.00230909092
   6209, -0.000904230517, 0.00162378035, 0.00230909092
   6210, -0.00150804105, 0.000569030643, 0.00230909092
   6211, -0.00135324989, 0.00396553334, 0.00173181808
   6212, -0.00402056053, 0.00101029815, 0.00173181808
   6213, -0.00297016394, -0.00289217359, 0.00173181808
   6214, 0.00397308171, 0.000992201152, 0.00173181808
   6215, 0.00212350115, 0.00354511268, 0.00173181808
   6216, 0.00125990773, -0.00400250824, 0.00173181808
   6217, 0.00314467889, -0.00292053982, 0.00173181808
   6218, 0.00374832447, -0.00209765113, 0.00173181808
   6219, 0.00407549227, -0.0011225834, 0.00173181808
   6220, 0.00415758137, -6.347007e-05, 0.00173181808
   6221, 0.00409602048, 0.000468003738, 0.00173181808
   6222, 0.0037879236, 0.00149980339, 0.00173181808
   6223, 0.00325157144, 0.00243436219, 0.00173181808
   6224, 0.00253152288, 0.00322010578, 0.00173181808
   6225, 0.00169254269, 0.0038232198, 0.00173181808
   6226, 0.000712110021, 0.00416869624, 0.00173181808
   6227, -0.000841098255, 0.00411218498, 0.00173181808
   6228, -0.00274003926, 0.00317171472, 0.00173181808
   6229, -0.00347115193, 0.00247505447, 0.00173181808
   6230, -0.0038807285, 0.00153199071, 0.00173181808
   6231, -0.00414161896, -0.000574599137, 0.00173181808
   6232, -0.00387396198, -0.0015894291, 0.00173181808
   6233, -0.00332311704, -0.0024855223, 0.00173181808
   6234, -0.00166725682, -0.00383298844, 0.00173181808
   6235, -0.000695951923, -0.0042049773, 0.00173181808
   6236, 0.000772389176, -0.00419611763, 0.00173181808
   6237, 0.00175150984, -0.00376692018, 0.00173181808
   6238, 0.00271001016, -0.00320286886, 0.00173181808
   6239, 0.00348136015, -0.00254004332, 0.00173181808
   6240, 0.00394045236, -0.00162366871, 0.00173181808
   6241, 0.00414883252, -0.000596157275, 0.00173181808
   6242, 0.00351941655, 0.000324701221, 0.00173181808
   6243, 0.00204495573, 0.00282008061, 0.00173181808
   6244, -0.00282244734, -0.00216782326, 0.00173181808
   6245, -0.000771973282, 0.00357665564, 0.00173181808
   6246, -0.00333736744, 0.00136134401, 0.00173181808
   6247, 0.000988309504, -0.00351155247, 0.00173181808
   6248, 0.00055882131, -0.00375104626, 0.00173181808
   6249, 0.00291620707, -0.0026352373, 0.00173181808
   6250, 0.00245204382, -0.00265190401, 0.00173181808
   6251, 0.0017081257, 0.00312953047, 0.00173181808
   6252, 0.00320142228, 0.00125144038, 0.00173181808
   6253, 0.00344620412, -0.00153000653, 0.00173181808
   6254, 0.00361137488, -0.000615609053, 0.00173181808
   6255, 0.00354529684, 0.0019814691, 0.00173181808
   6256, 0.00291160378, 0.00284737698, 0.00173181808
   6257, -0.00256794249, -0.00325510488, 0.00173181808
   6258, 0.00121839147, 0.00404197443, 0.00173181808
   6259, -0.00362852868, -0.00204763818, 0.00173181808
   6260, -0.0018484731, 0.00375401648, 0.00173181808
   6261, -0.00411584042, 0.000482196308, 0.00173181808
   6262, -0.00312830484, 0.00284483354, 0.00173181808
   6263, -0.00370325963, 0.00202818681, 0.00173181808
   6264, -0.004051005, -0.00109450193, 0.00173181808
   6265, 0.00223719073, -0.00349180237, 0.00173181808
   6266, -0.00119344355, -0.00404366432, 0.00173181808
   6267, 0.000197806672, 0.00421733828, 0.00173181808
   6268, -0.00212981319, -0.00356914126, 0.00173181808
   6269, -0.000204375261, -0.00430176966, 0.00173181808
   6270, -0.00416028267, -4.47708662e-05, 0.00173181808
   6271, -0.00230909651, 0.00348860933, 0.00173181808
   6272, 0.0011545578, -0.0027996928, 0.00173181808
   6273, 0.00156899134, 0.00246603554, 0.00173181808
   6274, -0.00354788383, 0.000372098963, 0.00173181808
   6275, -0.00166805799, 0.00325595844, 0.00173181808
   6276, -0.00212933798, -0.00286842952, 0.00173181808
   6277, -0.0033795936, -0.00140367029, 0.00173181808
   6278, -0.00245898636, 0.00267885718, 0.00173181808
   6279, -0.00356690213, -0.0010022528, 0.00173181808
   6280, 0.00238249777, 0.00247614784, 0.00173181808
   6281, -0.00320774689, 0.00183734798, 0.00173181808
   6282, 0.00145717501, -0.00326528074, 0.00173181808
   6283, -0.00207244186, 0.0029983623, 0.00173181808
   6284, -0.00130714767, -0.00338947773, 0.00173181808
   6285, 0.000140731077, 0.00371151417, 0.00173181808
   6286, -0.00172811642, -0.0031537991, 0.00173181808
   6287, -0.00362091744, -0.000560386456, 0.00173181808
   6288, -0.00360488612, -0.000101052217, 0.00173181808
   6289, 0.00137465156, 0.00340616587, 0.00173181808
   6290, 0.00296684611, 0.0016876508, 0.00173181808
   6291, -0.00313480734, -0.000599588093, 0.00173181808
   6292, -0.00148921448, 0.00282661617, 0.00173181808
   6293, -0.00301071326, 0.000265140668, 0.00173181808
   6294, -0.00171224575, -0.00250490871, 0.00173181808
   6295, -0.00182060245, 0.00256777345, 0.00173181808
   6296, -0.00135453546, -0.0027738472, 0.00173181808
   6297,  0.001870826,  0.002135196, 0.00173181808
   6298, -0.00282380497, 0.00123672944, 0.00173181808
   6299, 0.00205148384, -0.00223219814, 0.00173181808
   6300, 0.00100395468, 0.00362518849, 0.00173181808
   6301, 0.000152082255, 0.00321342587, 0.00173181808
   6302, 0.000156014619, -0.00336919143, 0.00173181808
   6303, -0.00249434332, -0.00253175036, 0.00173181808
   6304, -0.00122060697, 0.00345152454, 0.00173181808
   6305, -0.00346104824, 0.000866823015, 0.00173181808
   6306, 0.00128685881, 0.00278062373, 0.00173181808
   6307, 0.00161891407, -0.00253219646, 0.00173181808
   6308, -0.000900272455, -0.0035955233, 0.00173181808
   6309, -0.0012980618, -0.00218321267, 0.00173181808
   6310, -0.00134095387, 0.00252467697, 0.00173181808
   6311, 0.00269140187, 0.00209695008, 0.00173181808
   6312, 0.00137190078, 0.00182387407, 0.00173181808
   6313, -0.000564105227, -0.00319002755, 0.00173181808
   6314, 0.00110149034, 0.00216783886, 0.00173181808
   6315, 0.000847242423, -0.00232953043, 0.00173181808
   6316, 0.00174873474, -0.00182702171, 0.00173181808
   6317, 0.00058890396, 0.00371043221, 0.00173181808
   6318, -0.00216334779, 0.00220700284, 0.00173181808
   6319, 0.00243393006, -0.00186947593, 0.00173181808
   6320, -0.000690910092, 0.00305446191, 0.00173181808
   6321, -0.000485159166, -0.00377474586, 0.00173181808
   6322, 0.000876111619, 0.00152649579, 0.00173181808
   6323, -0.00160967186, -0.00190408016, 0.00173181808
   6324, -0.0010938209, -0.00245171133, 0.00173181808
   6325, -0.00175259309, 0.00184043497, 0.00173181808
   6326, -0.000186767342, 0.00261800084, 0.00173181808
   6327, 0.00215857429, 0.00178177387, 0.00173181808
   6328, -0.000160787502, -0.00287347427, 0.00173181808
   6329, 0.000860432629, 0.00251776353, 0.00173181808
   6330, 0.0028853002, -0.00150461926, 0.00173181808
   6331, -0.00282635377, 0.00239056721, 0.00173181808
   6332, 0.000548588345, 0.00327916909, 0.00173181808
   6333, -0.00103522185, 0.00252056657, 0.00173181808
   6334, 0.00283275265, 0.000586048176, 0.00173181808
   6335, 0.00215272489, -0.00154284958, 0.00173181808
   6336, 0.00333265262, -0.00193863653, 0.00173181808
   6337, 0.00355281425, -0.00108770491, 0.00173181808
   6338, 0.00359481131, -0.000145130383, 0.00173181808
   6339, -0.0023359023, -0.00183082477, 0.00173181808
   6340, 0.00306482054, -0.000248516328, 0.00173181808
   6341, 0.000667472021, 0.00288068084, 0.00173181808
   6342, 0.00104305637, 0.00307724578, 0.00173181808
   6343, -0.00083199935, -0.00185014843, 0.00173181808
   6344, -0.000604834524, 0.00196997123, 0.00173181808
   6345, -0.00259547913, 0.00179638213, 0.00173181808
   6346, 3.88241388e-05, -0.00210830895, 0.00173181808
   6347, 0.00164725259, 0.00148151908, 0.00173181808
   6348, 0.00242095604, 0.00140251254, 0.00173181808
   6349, 0.000627421017, 0.00191148254, 0.00173181808
   6350, -0.0013811196,  -0.00135007, 0.00173181808
   6351, 0.00275410013, -0.00101068977, 0.00173181808
   6352, -0.00187416759, -0.00152094779, 0.00173181808
   6353, -0.00242865551, 0.00105836208, 0.00173181808
   6354, -6.0290673e-05, 0.0021352896, 0.00173181808
   6355, 0.00257243309, -0.000391532725, 0.00173181808
   6356, -0.00263268594, -0.00146373489, 0.00173181808
   6357, 0.00191721506, -0.00118202239, 0.00173181808
   6358, -0.000580140157, -0.00244367123, 0.00173181808
   6359, -0.00201350613, 0.00129957171, 0.00173181808
   6360, 0.00106725481, -0.00164589926, 0.00173181808
   6361, 0.00114658801, 0.00117507228, 0.00173181808
   6362, 0.00190618366, 0.00112789962, 0.00173181808
   6363, 0.000366628345, 0.00123818335, 0.00173181808
   6364, 0.000416493887, 0.00231370912, 0.00173181808
   6365, -0.00103527016, -0.000848668802, 0.00173181808
   6366, 0.00296931528, 0.000166841462, 0.00173181808
   6367, 0.00151707651, -0.00142398698, 0.00173181808
   6368, -0.000801510876, 0.00128439965, 0.00173181808
   6369, -0.000209167163, -0.00161284197, 0.00173181808
   6370, -0.00296090939, -0.00114833191, 0.00173181808
   6371, 0.0024549847, -1.4813204e-05, 0.00173181808
   6372, 0.000914154225, -0.00122501259, 0.00173181808
   6373, 0.00134233665, -0.00103631616, 0.00173181808
   6374, 0.00143360544, 0.000859176042, 0.00173181808
   6375, 0.00212829164, 0.000752113643, 0.00173181808
   6376, -0.00294047943, 0.000742614502, 0.00173181808
   6377, 0.00230799569, 0.000370419933, 0.00173181808
   6378, 0.00311195711, -0.000649643189, 0.00173181808
   6379, 0.00213276432, -0.000587722694, 0.00173181808
   6380, -0.000944585889, -0.00296284794, 0.00173181808
   6381, 0.000141423341, 0.00168791867, 0.00173181808
   6382, 0.000622865162, 0.000741376076, 0.00173181808
   6383, -0.000340482773, 0.00149200519, 0.00173181808
   6384, 0.000361654878, -0.0012826228, 0.00173181808
   6385, -0.0012926287, 0.00166836032, 0.00173181808
   6386, 0.000613496988, -0.000732398708, 0.00173181808
   6387, -0.000151188229, 0.0010424651, 0.00173181808
   6388, 0.00198280136, -0.000219871872, 0.00173181808
   6389, -0.000633230025, 0.000901054882, 0.00173181808
   6390, -0.00155415211, 5.21985748e-05, 0.00173181808
   6391, -0.00214766851, -0.00102410931, 0.00173181808
   6392, -0.00245067058, 0.000644518586, 0.00173181808
   6393, 0.00155171473, -0.000442923862, 0.00173181808
   6394, 0.00107027742, 0.000601972977, 0.00173181808
   6395, -0.00152497459, -0.000917053316, 0.00173181808
   6396, -0.0010117389, 0.000809108606, 0.00173181808
   6397, -0.00268690172, -0.000761706033, 0.00173181808
   6398, -0.00312115229, -0.00178152137, 0.00173181808
   6399, -5.57922613e-06, -0.000881481101, 0.00173181808
   6400, -0.00207330636, -0.000427376159, 0.00173181808
   6401, 0.00182075496, 0.000146054736, 0.00173181808
   6402, -0.000550453085, 0.000462105003, 0.00173181808
   6403, 0.00117953774, -0.000669663481, 0.00173181808
   6404, -0.0020269223, 9.98058604e-05, 0.00173181808
   6405, -0.000749598257, -0.000406963052, 0.00173181808
   6406, 0.00116893614, 0.000262420217, 0.00173181808
   6407, 0.000619583181, 5.30813522e-05, 0.00173181808
   6408, -0.00107353542, 1.94925287e-05, 0.00173181808
   6409, -1.23417567e-05, 0.000577200612, 0.00173181808
   6410, 3.34280012e-05, 8.49908902e-05, 0.00173181808
   6411, 0.00135823153, -8.93766119e-05, 0.00173181808
   6412, 0.000321388652, -0.000485395518, 0.00173181808
   6413, -0.000523946073, -4.92745166e-05, 0.00173181808
   6414, -0.00157230778, -0.000435936701, 0.00173181808
   6415, 0.000943185936, -0.000345294422, 0.00173181808
   6416, 0.00164351484, 0.000501646835, 0.00173181808
   6417, 0.00264639547, 0.000999862212, 0.00173181808
   6418, -0.0011104648, -0.000411461981, 0.00173181808
   6419, -0.00257178117, -0.000312425283, 0.00173181808
   6420, -0.000269917189, -0.000500896305, 0.00173181808
   6421, -0.000318563427, 0.00419643195, 0.00173181808
   6422, 0.000291611359, -0.00431829831, 0.00173181808
   6423, 0.00338417524, 0.000793792715, 0.00173181808
   6424, -0.00030827726, 0.00366496085, 0.00173181808
   6425, -0.00315928599, 0.00223519979, 0.00173181808
   6426, 0.000259194087, -0.00397536671, 0.00173181808
   6427, 0.00193770218, -0.00298756175, 0.00173181808
   6428, 0.00307746138, -0.00106590847, 0.00173181808
   6429, 0.00298592844, -0.00185081188, 0.00173181808
   6430, 0.00273260451, -0.00215353072, 0.00173181808
   6431, 0.00311360625, -0.00231958134, 0.00173181808
   6432, 0.00066264387, -0.00305879372, 0.00173181808
   6433, -7.04654376e-05, -0.00386221963, 0.00173181808
   6434, 0.000867682858, 0.0033219764, 0.00173181808
   6435, -0.000261262147, 0.0031392735, 0.00173181808
   6436, -0.00109555002, 0.00297483732, 0.00173181808
   6437, -0.00307588046, -0.000184679564, 0.00173181808
   6438, -0.00321494951, -0.000911038136, 0.00173181808
   6439, -0.00203649863, -0.00218860968, 0.00173181808
   6440, -0.000316440681, -0.00343725714, 0.00173181808
   6441, 0.00252299802, -0.0012537532, 0.00173181808
   6442, 0.00131519185, -0.00208483613, 0.00173181808
   6443, 0.000341322564, -0.00258567906, 0.00173181808
   6444, 0.00173294265, -0.000813168241, 0.00173181808
   6445, 0.00230122125, -0.000936484255, 0.00173181808
   6446, 0.00267677754, -0.000736731279, 0.00173181808
   6447, 0.000259082415, 0.00274348469, 0.00173181808
   6448, 0.000575505546, -0.00184310519, 0.00173181808
   6449, -0.000623953005, 0.00253588241, 0.00173181808
   6450, -0.00151159009, 0.0022516863, 0.00173181808
   6451, -0.00250703539, 0.000170841202, 0.00173181808
   6452, -0.00128795544, -0.00168707827, 0.00173181808
   6453, 3.53105897e-05, -0.000303478009, 0.00173181808
   6454, 0.000887008209, -0.000876231119, 0.00173181808
   6455, -0.00198668684, 0.000639819016, 0.00173181808
   6456, -0.0011102251, 0.00210071378, 0.00173181808
   6457, -0.00134775729, 0.00112348737, 0.00173181808
   6458, -0.000908393471, -0.00129355956, 0.00173181808
   6459, -0.00042536456, -0.00114225002, 0.00173181808
   6460, -0.00105097017, 0.000458524708, 0.00173181808
   6461, -0.000610636838, -0.000723266741, 0.00173181808
   6462, -0.000904230517, 0.00162378035, 0.00173181808
   6463, -0.00150804105, 0.000569030643, 0.00173181808
   6464, -0.00135324989, 0.00396553334, 0.00115454535
   6465, -0.00402056053, 0.00101029815, 0.00115454535
   6466, -0.00297016394, -0.00289217359, 0.00115454535
   6467, 0.00397308171, 0.000992201152, 0.00115454535
   6468, 0.00212350115, 0.00354511268, 0.00115454535
   6469, 0.00125990773, -0.00400250824, 0.00115454535
   6470, 0.00314467889, -0.00292053982, 0.00115454535
   6471, 0.00374832447, -0.00209765113, 0.00115454535
   6472, 0.00407549227, -0.0011225834, 0.00115454535
   6473, 0.00415758137, -6.347007e-05, 0.00115454535
   6474, 0.00409602048, 0.000468003738, 0.00115454535
   6475, 0.0037879236, 0.00149980339, 0.00115454535
   6476, 0.00325157144, 0.00243436219, 0.00115454535
   6477, 0.00253152288, 0.00322010578, 0.00115454535
   6478, 0.00169254269, 0.0038232198, 0.00115454535
   6479, 0.000712110021, 0.00416869624, 0.00115454535
   6480, -0.000841098255, 0.00411218498, 0.00115454535
   6481, -0.00274003926, 0.00317171472, 0.00115454535
   6482, -0.00347115193, 0.00247505447, 0.00115454535
   6483, -0.0038807285, 0.00153199071, 0.00115454535
   6484, -0.00414161896, -0.000574599137, 0.00115454535
   6485, -0.00387396198, -0.0015894291, 0.00115454535
   6486, -0.00332311704, -0.0024855223, 0.00115454535
   6487, -0.00166725682, -0.00383298844, 0.00115454535
   6488, -0.000695951923, -0.0042049773, 0.00115454535
   6489, 0.000772389176, -0.00419611763, 0.00115454535
   6490, 0.00175150984, -0.00376692018, 0.00115454535
   6491, 0.00271001016, -0.00320286886, 0.00115454535
   6492, 0.00348136015, -0.00254004332, 0.00115454535
   6493, 0.00394045236, -0.00162366871, 0.00115454535
   6494, 0.00414883252, -0.000596157275, 0.00115454535
   6495, 0.00351941655, 0.000324701221, 0.00115454535
   6496, 0.00204495573, 0.00282008061, 0.00115454535
   6497, -0.00282244734, -0.00216782326, 0.00115454535
   6498, -0.000771973282, 0.00357665564, 0.00115454535
   6499, -0.00333736744, 0.00136134401, 0.00115454535
   6500, 0.000988309504, -0.00351155247, 0.00115454535
   6501, 0.00055882131, -0.00375104626, 0.00115454535
   6502, 0.00291620707, -0.0026352373, 0.00115454535
   6503, 0.00245204382, -0.00265190401, 0.00115454535
   6504, 0.0017081257, 0.00312953047, 0.00115454535
   6505, 0.00320142228, 0.00125144038, 0.00115454535
   6506, 0.00344620412, -0.00153000653, 0.00115454535
   6507, 0.00361137488, -0.000615609053, 0.00115454535
   6508, 0.00354529684, 0.0019814691, 0.00115454535
   6509, 0.00291160378, 0.00284737698, 0.00115454535
   6510, -0.00256794249, -0.00325510488, 0.00115454535
   6511, 0.00121839147, 0.00404197443, 0.00115454535
   6512, -0.00362852868, -0.00204763818, 0.00115454535
   6513, -0.0018484731, 0.00375401648, 0.00115454535
   6514, -0.00411584042, 0.000482196308, 0.00115454535
   6515, -0.00312830484, 0.00284483354, 0.00115454535
   6516, -0.00370325963, 0.00202818681, 0.00115454535
   6517, -0.004051005, -0.00109450193, 0.00115454535
   6518, 0.00223719073, -0.00349180237, 0.00115454535
   6519, -0.00119344355, -0.00404366432, 0.00115454535
   6520, 0.000197806672, 0.00421733828, 0.00115454535
   6521, -0.00212981319, -0.00356914126, 0.00115454535
   6522, -0.000204375261, -0.00430176966, 0.00115454535
   6523, -0.00416028267, -4.47708662e-05, 0.00115454535
   6524, -0.00230909651, 0.00348860933, 0.00115454535
   6525, 0.0011545578, -0.0027996928, 0.00115454535
   6526, 0.00156899134, 0.00246603554, 0.00115454535
   6527, -0.00354788383, 0.000372098963, 0.00115454535
   6528, -0.00166805799, 0.00325595844, 0.00115454535
   6529, -0.00212933798, -0.00286842952, 0.00115454535
   6530, -0.0033795936, -0.00140367029, 0.00115454535
   6531, -0.00245898636, 0.00267885718, 0.00115454535
   6532, -0.00356690213, -0.0010022528, 0.00115454535
   6533, 0.00238249777, 0.00247614784, 0.00115454535
   6534, -0.00320774689, 0.00183734798, 0.00115454535
   6535, 0.00145717501, -0.00326528074, 0.00115454535
   6536, -0.00207244186, 0.0029983623, 0.00115454535
   6537, -0.00130714767, -0.00338947773, 0.00115454535
   6538, 0.000140731077, 0.00371151417, 0.00115454535
   6539, -0.00172811642, -0.0031537991, 0.00115454535
   6540, -0.00362091744, -0.000560386456, 0.00115454535
   6541, -0.00360488612, -0.000101052217, 0.00115454535
   6542, 0.00137465156, 0.00340616587, 0.00115454535
   6543, 0.00296684611, 0.0016876508, 0.00115454535
   6544, -0.00313480734, -0.000599588093, 0.00115454535
   6545, -0.00148921448, 0.00282661617, 0.00115454535
   6546, -0.00301071326, 0.000265140668, 0.00115454535
   6547, -0.00171224575, -0.00250490871, 0.00115454535
   6548, -0.00182060245, 0.00256777345, 0.00115454535
   6549, -0.00135453546, -0.0027738472, 0.00115454535
   6550,  0.001870826,  0.002135196, 0.00115454535
   6551, -0.00282380497, 0.00123672944, 0.00115454535
   6552, 0.00205148384, -0.00223219814, 0.00115454535
   6553, 0.00100395468, 0.00362518849, 0.00115454535
   6554, 0.000152082255, 0.00321342587, 0.00115454535
   6555, 0.000156014619, -0.00336919143, 0.00115454535
   6556, -0.00249434332, -0.00253175036, 0.00115454535
   6557, -0.00122060697, 0.00345152454, 0.00115454535
   6558, -0.00346104824, 0.000866823015, 0.00115454535
   6559, 0.00128685881, 0.00278062373, 0.00115454535
   6560, 0.00161891407, -0.00253219646, 0.00115454535
   6561, -0.000900272455, -0.0035955233, 0.00115454535
   6562, -0.0012980618, -0.00218321267, 0.00115454535
   6563, -0.00134095387, 0.00252467697, 0.00115454535
   6564, 0.00269140187, 0.00209695008, 0.00115454535
   6565, 0.00137190078, 0.00182387407, 0.00115454535
   6566, -0.000564105227, -0.00319002755, 0.00115454535
   6567, 0.00110149034, 0.00216783886, 0.00115454535
   6568, 0.000847242423, -0.00232953043, 0.00115454535
   6569, 0.00174873474, -0.00182702171, 0.00115454535
   6570, 0.00058890396, 0.00371043221, 0.00115454535
   6571, -0.00216334779, 0.00220700284, 0.00115454535
   6572, 0.00243393006, -0.00186947593, 0.00115454535
   6573, -0.000690910092, 0.00305446191, 0.00115454535
   6574, -0.000485159166, -0.00377474586, 0.00115454535
   6575, 0.000876111619, 0.00152649579, 0.00115454535
   6576, -0.00160967186, -0.00190408016, 0.00115454535
   6577, -0.0010938209, -0.00245171133, 0.00115454535
   6578, -0.00175259309, 0.00184043497, 0.00115454535
   6579, -0.000186767342, 0.00261800084, 0.00115454535
   6580, 0.00215857429, 0.00178177387, 0.00115454535
   6581, -0.000160787502, -0.00287347427, 0.00115454535
   6582, 0.000860432629, 0.00251776353, 0.00115454535
   6583, 0.0028853002, -0.00150461926, 0.00115454535
   6584, -0.00282635377, 0.00239056721, 0.00115454535
   6585, 0.000548588345, 0.00327916909, 0.00115454535
   6586, -0.00103522185, 0.00252056657, 0.00115454535
   6587, 0.00283275265, 0.000586048176, 0.00115454535
   6588, 0.00215272489, -0.00154284958, 0.00115454535
   6589, 0.00333265262, -0.00193863653, 0.00115454535
   6590, 0.00355281425, -0.00108770491, 0.00115454535
   6591, 0.00359481131, -0.000145130383, 0.00115454535
   6592, -0.0023359023, -0.00183082477, 0.00115454535
   6593, 0.00306482054, -0.000248516328, 0.00115454535
   6594, 0.000667472021, 0.00288068084, 0.00115454535
   6595, 0.00104305637, 0.00307724578, 0.00115454535
   6596, -0.00083199935, -0.00185014843, 0.00115454535
   6597, -0.000604834524, 0.00196997123, 0.00115454535
   6598, -0.00259547913, 0.00179638213, 0.00115454535
   6599, 3.88241388e-05, -0.00210830895, 0.00115454535
   6600, 0.00164725259, 0.00148151908, 0.00115454535
   6601, 0.00242095604, 0.00140251254, 0.00115454535
   6602, 0.000627421017, 0.00191148254, 0.00115454535
   6603, -0.0013811196,  -0.00135007, 0.00115454535
   6604, 0.00275410013, -0.00101068977, 0.00115454535
   6605, -0.00187416759, -0.00152094779, 0.00115454535
   6606, -0.00242865551, 0.00105836208, 0.00115454535
   6607, -6.0290673e-05, 0.0021352896, 0.00115454535
   6608, 0.00257243309, -0.000391532725, 0.00115454535
   6609, -0.00263268594, -0.00146373489, 0.00115454535
   6610, 0.00191721506, -0.00118202239, 0.00115454535
   6611, -0.000580140157, -0.00244367123, 0.00115454535
   6612, -0.00201350613, 0.00129957171, 0.00115454535
   6613, 0.00106725481, -0.00164589926, 0.00115454535
   6614, 0.00114658801, 0.00117507228, 0.00115454535
   6615, 0.00190618366, 0.00112789962, 0.00115454535
   6616, 0.000366628345, 0.00123818335, 0.00115454535
   6617, 0.000416493887, 0.00231370912, 0.00115454535
   6618, -0.00103527016, -0.000848668802, 0.00115454535
   6619, 0.00296931528, 0.000166841462, 0.00115454535
   6620, 0.00151707651, -0.00142398698, 0.00115454535
   6621, -0.000801510876, 0.00128439965, 0.00115454535
   6622, -0.000209167163, -0.00161284197, 0.00115454535
   6623, -0.00296090939, -0.00114833191, 0.00115454535
   6624, 0.0024549847, -1.4813204e-05, 0.00115454535
   6625, 0.000914154225, -0.00122501259, 0.00115454535
   6626, 0.00134233665, -0.00103631616, 0.00115454535
   6627, 0.00143360544, 0.000859176042, 0.00115454535
   6628, 0.00212829164, 0.000752113643, 0.00115454535
   6629, -0.00294047943, 0.000742614502, 0.00115454535
   6630, 0.00230799569, 0.000370419933, 0.00115454535
   6631, 0.00311195711, -0.000649643189, 0.00115454535
   6632, 0.00213276432, -0.000587722694, 0.00115454535
   6633, -0.000944585889, -0.00296284794, 0.00115454535
   6634, 0.000141423341, 0.00168791867, 0.00115454535
   6635, 0.000622865162, 0.000741376076, 0.00115454535
   6636, -0.000340482773, 0.00149200519, 0.00115454535
   6637, 0.000361654878, -0.0012826228, 0.00115454535
   6638, -0.0012926287, 0.00166836032, 0.00115454535
   6639, 0.000613496988, -0.000732398708, 0.00115454535
   6640, -0.000151188229, 0.0010424651, 0.00115454535
   6641, 0.00198280136, -0.000219871872, 0.00115454535
   6642, -0.000633230025, 0.000901054882, 0.00115454535
   6643, -0.00155415211, 5.21985748e-05, 0.00115454535
   6644, -0.00214766851, -0.00102410931, 0.00115454535
   6645, -0.00245067058, 0.000644518586, 0.00115454535
   6646, 0.00155171473, -0.000442923862, 0.00115454535
   6647, 0.00107027742, 0.000601972977, 0.00115454535
   6648, -0.00152497459, -0.000917053316, 0.00115454535
   6649, -0.0010117389, 0.000809108606, 0.00115454535
   6650, -0.00268690172, -0.000761706033, 0.00115454535
   6651, -0.00312115229, -0.00178152137, 0.00115454535
   6652, -5.57922613e-06, -0.000881481101, 0.00115454535
   6653, -0.00207330636, -0.000427376159, 0.00115454535
   6654, 0.00182075496, 0.000146054736, 0.00115454535
   6655, -0.000550453085, 0.000462105003, 0.00115454535
   6656, 0.00117953774, -0.000669663481, 0.00115454535
   6657, -0.0020269223, 9.98058604e-05, 0.00115454535
   6658, -0.000749598257, -0.000406963052, 0.00115454535
   6659, 0.00116893614, 0.000262420217, 0.00115454535
   6660, 0.000619583181, 5.30813522e-05, 0.00115454535
   6661, -0.00107353542, 1.94925287e-05, 0.00115454535
   6662, -1.23417567e-05, 0.000577200612, 0.00115454535
   6663, 3.34280012e-05, 8.49908902e-05, 0.00115454535
   6664, 0.00135823153, -8.93766119e-05, 0.00115454535
   6665, 0.000321388652, -0.000485395518, 0.00115454535
   6666, -0.000523946073, -4.92745166e-05, 0.00115454535
   6667, -0.00157230778, -0.000435936701, 0.00115454535
   6668, 0.000943185936, -0.000345294422, 0.00115454535
   6669, 0.00164351484, 0.000501646835, 0.00115454535
   6670, 0.00264639547, 0.000999862212, 0.00115454535
   6671, -0.0011104648, -0.000411461981, 0.00115454535
   6672, -0.00257178117, -0.000312425283, 0.00115454535
   6673, -0.000269917189, -0.000500896305, 0.00115454535
   6674, -0.000318563427, 0.00419643195, 0.00115454535
   6675, 0.000291611359, -0.00431829831, 0.00115454535
   6676, 0.00338417524, 0.000793792715, 0.00115454535
   6677, -0.00030827726, 0.00366496085, 0.00115454535
   6678, -0.00315928599, 0.00223519979, 0.00115454535
   6679, 0.000259194087, -0.00397536671, 0.00115454535
   6680, 0.00193770218, -0.00298756175, 0.00115454535
   6681, 0.00307746138, -0.00106590847, 0.00115454535
   6682, 0.00298592844, -0.00185081188, 0.00115454535
   6683, 0.00273260451, -0.00215353072, 0.00115454535
   6684, 0.00311360625, -0.00231958134, 0.00115454535
   6685, 0.00066264387, -0.00305879372, 0.00115454535
   6686, -7.04654376e-05, -0.00386221963, 0.00115454535
   6687, 0.000867682858, 0.0033219764, 0.00115454535
   6688, -0.000261262147, 0.0031392735, 0.00115454535
   6689, -0.00109555002, 0.00297483732, 0.00115454535
   6690, -0.00307588046, -0.000184679564, 0.00115454535
   6691, -0.00321494951, -0.000911038136, 0.00115454535
   6692, -0.00203649863, -0.00218860968, 0.00115454535
   6693, -0.000316440681, -0.00343725714, 0.00115454535
   6694, 0.00252299802, -0.0012537532, 0.00115454535
   6695, 0.00131519185, -0.00208483613, 0.00115454535
   6696, 0.000341322564, -0.00258567906, 0.00115454535
   6697, 0.00173294265, -0.000813168241, 0.00115454535
   6698, 0.00230122125, -0.000936484255, 0.00115454535
   6699, 0.00267677754, -0.000736731279, 0.00115454535
   6700, 0.000259082415, 0.00274348469, 0.00115454535
   6701, 0.000575505546, -0.00184310519, 0.00115454535
   6702, -0.000623953005, 0.00253588241, 0.00115454535
   6703, -0.00151159009, 0.0022516863, 0.00115454535
   6704, -0.00250703539, 0.000170841202, 0.00115454535
   6705, -0.00128795544, -0.00168707827, 0.00115454535
   6706, 3.53105897e-05, -0.000303478009, 0.00115454535
   6707, 0.000887008209, -0.000876231119, 0.00115454535
   6708, -0.00198668684, 0.000639819016, 0.00115454535
   6709, -0.0011102251, 0.00210071378, 0.00115454535
   6710, -0.00134775729, 0.00112348737, 0.00115454535
   6711, -0.000908393471, -0.00129355956, 0.00115454535
   6712, -0.00042536456, -0.00114225002, 0.00115454535
   6713, -0.00105097017, 0.000458524708, 0.00115454535
   6714, -0.000610636838, -0.000723266741, 0.00115454535
   6715, -0.000904230517, 0.00162378035, 0.00115454535
   6716, -0.00150804105, 0.000569030643, 0.00115454535
   6717, -0.00135324989, 0.00396553334, 0.000577272673
   6718, -0.00402056053, 0.00101029815, 0.000577272673
   6719, -0.00297016394, -0.00289217359, 0.000577272673
   6720, 0.00397308171, 0.000992201152, 0.000577272673
   6721, 0.00212350115, 0.00354511268, 0.000577272673
   6722, 0.00125990773, -0.00400250824, 0.000577272673
   6723, 0.00314467889, -0.00292053982, 0.000577272673
   6724, 0.00374832447, -0.00209765113, 0.000577272673
   6725, 0.00407549227, -0.0011225834, 0.000577272673
   6726, 0.00415758137, -6.347007e-05, 0.000577272673
   6727, 0.00409602048, 0.000468003738, 0.000577272673
   6728, 0.0037879236, 0.00149980339, 0.000577272673
   6729, 0.00325157144, 0.00243436219, 0.000577272673
   6730, 0.00253152288, 0.00322010578, 0.000577272673
   6731, 0.00169254269, 0.0038232198, 0.000577272673
   6732, 0.000712110021, 0.00416869624, 0.000577272673
   6733, -0.000841098255, 0.00411218498, 0.000577272673
   6734, -0.00274003926, 0.00317171472, 0.000577272673
   6735, -0.00347115193, 0.00247505447, 0.000577272673
   6736, -0.0038807285, 0.00153199071, 0.000577272673
   6737, -0.00414161896, -0.000574599137, 0.000577272673
   6738, -0.00387396198, -0.0015894291, 0.000577272673
   6739, -0.00332311704, -0.0024855223, 0.000577272673
   6740, -0.00166725682, -0.00383298844, 0.000577272673
   6741, -0.000695951923, -0.0042049773, 0.000577272673
   6742, 0.000772389176, -0.00419611763, 0.000577272673
   6743, 0.00175150984, -0.00376692018, 0.000577272673
   6744, 0.00271001016, -0.00320286886, 0.000577272673
   6745, 0.00348136015, -0.00254004332, 0.000577272673
   6746, 0.00394045236, -0.00162366871, 0.000577272673
   6747, 0.00414883252, -0.000596157275, 0.000577272673
   6748, 0.00351941655, 0.000324701221, 0.000577272673
   6749, 0.00204495573, 0.00282008061, 0.000577272673
   6750, -0.00282244734, -0.00216782326, 0.000577272673
   6751, -0.000771973282, 0.00357665564, 0.000577272673
   6752, -0.00333736744, 0.00136134401, 0.000577272673
   6753, 0.000988309504, -0.00351155247, 0.000577272673
   6754, 0.00055882131, -0.00375104626, 0.000577272673
   6755, 0.00291620707, -0.0026352373, 0.000577272673
   6756, 0.00245204382, -0.00265190401, 0.000577272673
   6757, 0.0017081257, 0.00312953047, 0.000577272673
   6758, 0.00320142228, 0.00125144038, 0.000577272673
   6759, 0.00344620412, -0.00153000653, 0.000577272673
   6760, 0.00361137488, -0.000615609053, 0.000577272673
   6761, 0.00354529684, 0.0019814691, 0.000577272673
   6762, 0.00291160378, 0.00284737698, 0.000577272673
   6763, -0.00256794249, -0.00325510488, 0.000577272673
   6764, 0.00121839147, 0.00404197443, 0.000577272673
   6765, -0.00362852868, -0.00204763818, 0.000577272673
   6766, -0.0018484731, 0.00375401648, 0.000577272673
   6767, -0.00411584042, 0.000482196308, 0.000577272673
   6768, -0.00312830484, 0.00284483354, 0.000577272673
   6769, -0.00370325963, 0.00202818681, 0.000577272673
   6770, -0.004051005, -0.00109450193, 0.000577272673
   6771, 0.00223719073, -0.00349180237, 0.000577272673
   6772, -0.00119344355, -0.00404366432, 0.000577272673
   6773, 0.000197806672, 0.00421733828, 0.000577272673
   6774, -0.00212981319, -0.00356914126, 0.000577272673
   6775, -0.000204375261, -0.00430176966, 0.000577272673
   6776, -0.00416028267, -4.47708662e-05, 0.000577272673
   6777, -0.00230909651, 0.00348860933, 0.000577272673
   6778, 0.0011545578, -0.0027996928, 0.000577272673
   6779, 0.00156899134, 0.00246603554, 0.000577272673
   6780, -0.00354788383, 0.000372098963, 0.000577272673
   6781, -0.00166805799, 0.00325595844, 0.000577272673
   6782, -0.00212933798, -0.00286842952, 0.000577272673
   6783, -0.0033795936, -0.00140367029, 0.000577272673
   6784, -0.00245898636, 0.00267885718, 0.000577272673
   6785, -0.00356690213, -0.0010022528, 0.000577272673
   6786, 0.00238249777, 0.00247614784, 0.000577272673
   6787, -0.00320774689, 0.00183734798, 0.000577272673
   6788, 0.00145717501, -0.00326528074, 0.000577272673
   6789, -0.00207244186, 0.0029983623, 0.000577272673
   6790, -0.00130714767, -0.00338947773, 0.000577272673
   6791, 0.000140731077, 0.00371151417, 0.000577272673
   6792, -0.00172811642, -0.0031537991, 0.000577272673
   6793, -0.00362091744, -0.000560386456, 0.000577272673
   6794, -0.00360488612, -0.000101052217, 0.000577272673
   6795, 0.00137465156, 0.00340616587, 0.000577272673
   6796, 0.00296684611, 0.0016876508, 0.000577272673
   6797, -0.00313480734, -0.000599588093, 0.000577272673
   6798, -0.00148921448, 0.00282661617, 0.000577272673
   6799, -0.00301071326, 0.000265140668, 0.000577272673
   6800, -0.00171224575, -0.00250490871, 0.000577272673
   6801, -0.00182060245, 0.00256777345, 0.000577272673
   6802, -0.00135453546, -0.0027738472, 0.000577272673
   6803,  0.001870826,  0.002135196, 0.000577272673
   6804, -0.00282380497, 0.00123672944, 0.000577272673
   6805, 0.00205148384, -0.00223219814, 0.000577272673
   6806, 0.00100395468, 0.00362518849, 0.000577272673
   6807, 0.000152082255, 0.00321342587, 0.000577272673
   6808, 0.000156014619, -0.00336919143, 0.000577272673
   6809, -0.00249434332, -0.00253175036, 0.000577272673
   6810, -0.00122060697, 0.00345152454, 0.000577272673
   6811, -0.00346104824, 0.000866823015, 0.000577272673
   6812, 0.00128685881, 0.00278062373, 0.000577272673
   6813, 0.00161891407, -0.00253219646, 0.000577272673
   6814, -0.000900272455, -0.0035955233, 0.000577272673
   6815, -0.0012980618, -0.00218321267, 0.000577272673
   6816, -0.00134095387, 0.00252467697, 0.000577272673
   6817, 0.00269140187, 0.00209695008, 0.000577272673
   6818, 0.00137190078, 0.00182387407, 0.000577272673
   6819, -0.000564105227, -0.00319002755, 0.000577272673
   6820, 0.00110149034, 0.00216783886, 0.000577272673
   6821, 0.000847242423, -0.00232953043, 0.000577272673
   6822, 0.00174873474, -0.00182702171, 0.000577272673
   6823, 0.00058890396, 0.00371043221, 0.000577272673
   6824, -0.00216334779, 0.00220700284, 0.000577272673
   6825, 0.00243393006, -0.00186947593, 0.000577272673
   6826, -0.000690910092, 0.00305446191, 0.000577272673
   6827, -0.000485159166, -0.00377474586, 0.000577272673
   6828, 0.000876111619, 0.00152649579, 0.000577272673
   6829, -0.00160967186, -0.00190408016, 0.000577272673
   6830, -0.0010938209, -0.00245171133, 0.000577272673
   6831, -0.00175259309, 0.00184043497, 0.000577272673
   6832, -0.000186767342, 0.00261800084, 0.000577272673
   6833, 0.00215857429, 0.00178177387, 0.000577272673
   6834, -0.000160787502, -0.00287347427, 0.000577272673
   6835, 0.000860432629, 0.00251776353, 0.000577272673
   6836, 0.0028853002, -0.00150461926, 0.000577272673
   6837, -0.00282635377, 0.00239056721, 0.000577272673
   6838, 0.000548588345, 0.00327916909, 0.000577272673
   6839, -0.00103522185, 0.00252056657, 0.000577272673
   6840, 0.00283275265, 0.000586048176, 0.000577272673
   6841, 0.00215272489, -0.00154284958, 0.000577272673
   6842, 0.00333265262, -0.00193863653, 0.000577272673
   6843, 0.00355281425, -0.00108770491, 0.000577272673
   6844, 0.00359481131, -0.000145130383, 0.000577272673
   6845, -0.0023359023, -0.00183082477, 0.000577272673
   6846, 0.00306482054, -0.000248516328, 0.000577272673
   6847, 0.000667472021, 0.00288068084, 0.000577272673
   6848, 0.00104305637, 0.00307724578, 0.000577272673
   6849, -0.00083199935, -0.00185014843, 0.000577272673
   6850, -0.000604834524, 0.00196997123, 0.000577272673
   6851, -0.00259547913, 0.00179638213, 0.000577272673
   6852, 3.88241388e-05, -0.00210830895, 0.000577272673
   6853, 0.00164725259, 0.00148151908, 0.000577272673
   6854, 0.00242095604, 0.00140251254, 0.000577272673
   6855, 0.000627421017, 0.00191148254, 0.000577272673
   6856, -0.0013811196,  -0.00135007, 0.000577272673
   6857, 0.00275410013, -0.00101068977, 0.000577272673
   6858, -0.00187416759, -0.00152094779, 0.000577272673
   6859, -0.00242865551, 0.00105836208, 0.000577272673
   6860, -6.0290673e-05, 0.0021352896, 0.000577272673
   6861, 0.00257243309, -0.000391532725, 0.000577272673
   6862, -0.00263268594, -0.00146373489, 0.000577272673
   6863, 0.00191721506, -0.00118202239, 0.000577272673
   6864, -0.000580140157, -0.00244367123, 0.000577272673
   6865, -0.00201350613, 0.00129957171, 0.000577272673
   6866, 0.00106725481, -0.00164589926, 0.000577272673
   6867, 0.00114658801, 0.00117507228, 0.000577272673
   6868, 0.00190618366, 0.00112789962, 0.000577272673
   6869, 0.000366628345, 0.00123818335, 0.000577272673
   6870, 0.000416493887, 0.00231370912, 0.000577272673
   6871, -0.00103527016, -0.000848668802, 0.000577272673
   6872, 0.00296931528, 0.000166841462, 0.000577272673
   6873, 0.00151707651, -0.00142398698, 0.000577272673
   6874, -0.000801510876, 0.00128439965, 0.000577272673
   6875, -0.000209167163, -0.00161284197, 0.000577272673
   6876, -0.00296090939, -0.00114833191, 0.000577272673
   6877, 0.0024549847, -1.4813204e-05, 0.000577272673
   6878, 0.000914154225, -0.00122501259, 0.000577272673
   6879, 0.00134233665, -0.00103631616, 0.000577272673
   6880, 0.00143360544, 0.000859176042, 0.000577272673
   6881, 0.00212829164, 0.000752113643, 0.000577272673
   6882, -0.00294047943, 0.000742614502, 0.000577272673
   6883, 0.00230799569, 0.000370419933, 0.000577272673
   6884, 0.00311195711, -0.000649643189, 0.000577272673
   6885, 0.00213276432, -0.000587722694, 0.000577272673
   6886, -0.000944585889, -0.00296284794, 0.000577272673
   6887, 0.000141423341, 0.00168791867, 0.000577272673
   6888, 0.000622865162, 0.000741376076, 0.000577272673
   6889, -0.000340482773, 0.00149200519, 0.000577272673
   6890, 0.000361654878, -0.0012826228, 0.000577272673
   6891, -0.0012926287, 0.00166836032, 0.000577272673
   6892, 0.000613496988, -0.000732398708, 0.000577272673
   6893, -0.000151188229, 0.0010424651, 0.000577272673
   6894, 0.00198280136, -0.000219871872, 0.000577272673
   6895, -0.000633230025, 0.000901054882, 0.000577272673
   6896, -0.00155415211, 5.21985748e-05, 0.000577272673
   6897, -0.00214766851, -0.00102410931, 0.000577272673
   6898, -0.00245067058, 0.000644518586, 0.000577272673
   6899, 0.00155171473, -0.000442923862, 0.000577272673
   6900, 0.00107027742, 0.000601972977, 0.000577272673
   6901, -0.00152497459, -0.000917053316, 0.000577272673
   6902, -0.0010117389, 0.000809108606, 0.000577272673
   6903, -0.00268690172, -0.000761706033, 0.000577272673
   6904, -0.00312115229, -0.00178152137, 0.000577272673
   6905, -5.57922613e-06, -0.000881481101, 0.000577272673
   6906, -0.00207330636, -0.000427376159, 0.000577272673
   6907, 0.00182075496, 0.000146054736, 0.000577272673
   6908, -0.000550453085, 0.000462105003, 0.000577272673
   6909, 0.00117953774, -0.000669663481, 0.000577272673
   6910, -0.0020269223, 9.98058604e-05, 0.000577272673
   6911, -0.000749598257, -0.000406963052, 0.000577272673
   6912, 0.00116893614, 0.000262420217, 0.000577272673
   6913, 0.000619583181, 5.30813522e-05, 0.000577272673
   6914, -0.00107353542, 1.94925287e-05, 0.000577272673
   6915, -1.23417567e-05, 0.000577200612, 0.000577272673
   6916, 3.34280012e-05, 8.49908902e-05, 0.000577272673
   6917, 0.00135823153, -8.93766119e-05, 0.000577272673
   6918, 0.000321388652, -0.000485395518, 0.000577272673
   6919, -0.000523946073, -4.92745166e-05, 0.000577272673
   6920, -0.00157230778, -0.000435936701, 0.000577272673
   6921, 0.000943185936, -0.000345294422, 0.000577272673
   6922, 0.00164351484, 0.000501646835, 0.000577272673
   6923, 0.00264639547, 0.000999862212, 0.000577272673
   6924, -0.0011104648, -0.000411461981, 0.000577272673
   6925, -0.00257178117, -0.000312425283, 0.000577272673
   6926, -0.000269917189, -0.000500896305, 0.000577272673
   6927, -0.000318563427, 0.00419643195, 0.000577272673
   6928, 0.000291611359, -0.00431829831, 0.000577272673
   6929, 0.00338417524, 0.000793792715, 0.000577272673
   6930, -0.00030827726, 0.00366496085, 0.000577272673
   6931, -0.00315928599, 0.00223519979, 0.000577272673
   6932, 0.000259194087, -0.00397536671, 0.000577272673
   6933, 0.00193770218, -0.00298756175, 0.000577272673
   6934, 0.00307746138, -0.00106590847, 0.000577272673
   6935, 0.00298592844, -0.00185081188, 0.000577272673
   6936, 0.00273260451, -0.00215353072, 0.000577272673
   6937, 0.00311360625, -0.00231958134, 0.000577272673
   6938, 0.00066264387, -0.00305879372, 0.000577272673
   6939, -7.04654376e-05, -0.00386221963, 0.000577272673
   6940, 0.000867682858, 0.0033219764, 0.000577272673
   6941, -0.000261262147, 0.0031392735, 0.000577272673
   6942, -0.00109555002, 0.00297483732, 0.000577272673
   6943, -0.00307588046, -0.000184679564, 0.000577272673
   6944, -0.00321494951, -0.000911038136, 0.000577272673
   6945, -0.00203649863, -0.00218860968, 0.000577272673
   6946, -0.000316440681, -0.00343725714, 0.000577272673
   6947, 0.00252299802, -0.0012537532, 0.000577272673
   6948, 0.00131519185, -0.00208483613, 0.000577272673
   6949, 0.000341322564, -0.00258567906, 0.000577272673
   6950, 0.00173294265, -0.000813168241, 0.000577272673
   6951, 0.00230122125, -0.000936484255, 0.000577272673
   6952, 0.00267677754, -0.000736731279, 0.000577272673
   6953, 0.000259082415, 0.00274348469, 0.000577272673
   6954, 0.000575505546, -0.00184310519, 0.000577272673
   6955, -0.000623953005, 0.00253588241, 0.000577272673
   6956, -0.00151159009, 0.0022516863, 0.000577272673
   6957, -0.00250703539, 0.000170841202, 0.000577272673
   6958, -0.00128795544, -0.00168707827, 0.000577272673
   6959, 3.53105897e-05, -0.000303478009, 0.000577272673
   6960, 0.000887008209, -0.000876231119, 0.000577272673
   6961, -0.00198668684, 0.000639819016, 0.000577272673
   6962, -0.0011102251, 0.00210071378, 0.000577272673
   6963, -0.00134775729, 0.00112348737, 0.000577272673
   6964, -0.000908393471, -0.00129355956, 0.000577272673
   6965, -0.00042536456, -0.00114225002, 0.000577272673
   6966, -0.00105097017, 0.000458524708, 0.000577272673
   6967, -0.000610636838, -0.000723266741, 0.000577272673
   6968, -0.000904230517, 0.00162378035, 0.000577272673
   6969, -0.00150804105, 0.000569030643, 0.000577272673
*Element, type=C3D8R
   1,   12,  165,  155,   11,  666, 1924, 1914,  665
   2,  361,  364,  225,  207, 2120, 2123, 1984, 1966
   3,  151,   18,   19,  200, 1910,  672,  673, 1959
   4,  168,   21,   22,  202, 1927,  675,  676, 1961
   5,  238,  285,  221,  186, 1997, 2044, 1980, 1945
   6,   26,  152,  170,   25,  680, 1911, 1929,  679
   7,  232,  215,  223,  235, 1991, 1974, 1982, 1994
   8,  204,   30,   31,  172, 1963,  684,  685, 1931
   9,  199,  338,  217,  172, 1958, 2097, 1976, 1931
  10,  153,   34,   35,  197, 1912,  688,  689, 1956
  11,  174,   37,   38,  206, 1933,  691,  692, 1965
  12,  320,  224,  248,  253, 2079, 1983, 2007, 2012
  13,   43,  156,  176,   42,  697, 1915, 1935,  696
  14,  156,   43,   44,  177, 1915,  697,  698, 1936
  15,  162,    6,    7,  195, 1921,  660,  661, 1954
  16,  163,    8,    9,  196, 1922,  662,  663, 1955
  17,   11,  155,  164,   10,  665, 1914, 1923,  664
  18,  198,   13,   14,  166, 1957,  667,  668, 1925
  19,   47,  157,  178,   46,  701, 1916, 1937,  700
  20,  172,  217,  219,  204, 1931, 1976, 1978, 1963
  21,  157,  189,  190,  178, 1916, 1948, 1949, 1937
  22,  222,  177,  205,  367, 1981, 1936, 1964, 2126
  23,  276,  158,  180,  193, 2035, 1917, 1939, 1952
  24,    4,  161,  160,    1,  658, 1920, 1919,  657
  25,  221,  203,  170,  186, 1980, 1962, 1929, 1945
  26,  195,    7,    8,  163, 1954,  661,  662, 1922
  27,  164,  183,  220,  196, 1923, 1942, 1979, 1955
  28,  195,  230,  192,  162, 1954, 1989, 1951, 1921
  29,  166,   14,   15,  207, 1925,  668,  669, 1966
  30,   16,  361,  207,   15,  670, 2120, 1966,  669
  31,   18,  151,  167,   17,  672, 1910, 1926,  671
  32,  200,   19,   20,  211, 1959,  673,  674, 1970
  33,  202,   22,   23,  169, 1961,  676,  677, 1928
  34,  152,   26,   27,  201, 1911,  680,  681, 1960
  35,  171,   29,   30,  204, 1930,  683,  684, 1963
  36,  296,  279,  292,  331, 2055, 2038, 2051, 2090
  37,   34,  153,  173,   33,  688, 1912, 1932,  687
  38,  258,  265,  390,  235, 2017, 2024, 2149, 1994
  39,  206,   38,   39,  175, 1965,  692,  693, 1934
  40,   41,  362,  209,   40,  695, 2121, 1968,  694
  41,  362,  366,  373,  209, 2121, 2125, 2132, 1968
  42,  188,  176,  156,  187, 1947, 1935, 1915, 1946
  43,  157,   47,   48,  179, 1916,  701,  702, 1938
  44,  179,   48,   49,  158, 1938,  702,  703, 1917
  45,  180,   50,   51,  159, 1939,  704,  705, 1918
  46,  370,  190,  189,  371, 2129, 1949, 1948, 2130
  47,  182,  278,  160,  161, 1941, 2037, 1919, 1920
  48,  201,   27,   28,  210, 1960,  681,  682, 1969
  49,  197,   35,   36,  208, 1956,  689,  690, 1967
  50,    5,  154,  161,    4,  659, 1913, 1920,  658
  51,  154,    5,    6,  162, 1913,  659,  660, 1921
  52,  165,   12,   13,  198, 1924,  666,  667, 1957
  53,  191,  155,  165,  229, 1950, 1914, 1924, 1988
  54,  177,   44,   45,  205, 1936,  698,  699, 1964
  55,  205,   45,   46,  178, 1964,  699,  700, 1937
  56,  158,   49,   50,  180, 1917,  703,  704, 1939
  57,  371,  179,  158,  276, 2130, 1938, 1917, 2035
  58,  159,   51,   52,  181, 1918,  705,  706, 1940
  59,  193,  180,  159,  277, 1952, 1939, 1918, 2036
  60,  181,   52,    1,  160, 1940,  706,  657, 1919
  61,  277,  159,  181,  194, 2036, 1918, 1940, 1953
  62,  161,  154,  363,  182, 1920, 1913, 2122, 1941
  63,  230,  195,  163,  251, 1989, 1954, 1922, 2010
  64,  196,    9,   10,  164, 1955,  663,  664, 1923
  65,  183,  164,  155,  191, 1942, 1923, 1914, 1950
  66,  240,  198,  166,  257, 1999, 1957, 1925, 2016
  67,  237,  220,  183,  213, 1996, 1979, 1942, 1972
  68,  185,  167,  151,  244, 1944, 1926, 1910, 2003
  69,  262,  301,  287,  252, 2021, 2060, 2046, 2011
  70,  215,  200,  211,  223, 1974, 1959, 1970, 1982
  71,  169,   23,   24,  203, 1928,  677,  678, 1962
  72,  203,   24,   25,  170, 1962,  678,  679, 1929
  73,  201,  214,  245,  152, 1960, 1973, 2004, 1911
  74,  214,  233,  316,  245, 1973, 1992, 2075, 2004
  75,  214,  201,  210,  228, 1973, 1960, 1969, 1987
  76,  172,   31,   32,  199, 1931,  685,  686, 1958
  77,  199,   32,   33,  173, 1958,  686,  687, 1932
  78,  338,  199,  173,  184, 2097, 1958, 1932, 1943
  79,  213,  183,  191,  246, 1972, 1942, 1950, 2005
  80,  216,  197,  208,  226, 1975, 1956, 1967, 1985
  81,  175,   39,   40,  209, 1934,  693,  694, 1968
  82,  372,  212,  255,  383, 2131, 1971, 2014, 2142
  83,  367,  190,  239,  247, 2126, 1949, 1998, 2006
  84,  157,  179,  371,  189, 1916, 1938, 2130, 1948
  85,  154,  162,  192,  363, 1913, 1921, 1951, 2122
  86,  226,  236,  234,  216, 1985, 1995, 1993, 1975
  87,  229,  165,  198,  240, 1988, 1924, 1957, 1999
  88,  184,  173,  153,  243, 1943, 1932, 1912, 2002
  89,  197,  216,  243,  153, 1956, 1975, 2002, 1912
  90,  200,  215,  244,  151, 1959, 1974, 2003, 1910
  91,  271,  202,  169,  365, 2030, 1961, 1928, 2124
  92,  186,  170,  152,  245, 1945, 1929, 1911, 2004
  93,  228,  377,  233,  214, 1987, 2136, 1992, 1973
  94,  187,  156,  177,  222, 1946, 1915, 1936, 1981
  95,  222,  367,  247,  212, 1981, 2126, 2006, 1971
  96,  248,  206,  175,  261, 2007, 1965, 1934, 2020
  97,  247,  239,  256,  382, 2006, 1998, 2015, 2141
  98,  282,  229,  240,  374, 2041, 1988, 1999, 2133
  99,  220,  237,  267,  251, 1979, 1996, 2026, 2010
 100,  230,  288,  357,  192, 1989, 2047, 2116, 1951
 101,  194,  181,  160,  278, 1953, 1940, 1919, 2037
 102,  386,  295,  319,  385, 2145, 2054, 2078, 2144
 103,  208,   36,   37,  174, 1967,  690,  691, 1933
 104,  211,   20,   21,  168, 1970,  674,  675, 1927
 105,  210,   28,   29,  171, 1969,  682,  683, 1930
 106,  361,   16,   17,  167, 2120,  670,  671, 1926
 107,  226,  208,  174,  224, 1985, 1967, 1933, 1983
 108,  362,   41,   42,  176, 2121,  695,  696, 1935
 109,  228,  210,  171,  227, 1987, 1969, 1930, 1986
 110,  223,  211,  168,  218, 1982, 1970, 1927, 1977
 111,  246,  191,  229,  282, 2005, 1950, 1988, 2041
 112,  376,  244,  215,  232, 2135, 2003, 1974, 1991
 113,  244,  376,  260,  185, 2003, 2135, 2019, 1944
 114,  218,  168,  202,  271, 1977, 1927, 1961, 2030
 115,  243,  379,  279,  184, 2002, 2138, 2038, 1943
 116,  224,  174,  206,  248, 1983, 1933, 1965, 2007
 117,  379,  263,  292,  279, 2138, 2022, 2051, 2038
 118,  258,  218,  271,  285, 2017, 1977, 2030, 2044
 119,  245,  316,  238,  186, 2004, 2075, 1997, 1945
 120,  219,  378,  231,  227, 1978, 2137, 1990, 1986
 121,  204,  219,  227,  171, 1963, 1978, 1986, 1930
 122,  163,  196,  220,  251, 1922, 1955, 1979, 2010
 123,  380,  261,  373,  242, 2139, 2020, 2132, 2001
 124,  234,  249,  263,  379, 1993, 2008, 2022, 2138
 125,  207,  225,  257,  166, 1966, 1984, 2016, 1925
 126,  372,  242,  188,  187, 2131, 2001, 1947, 1946
 127,  227,  231,  377,  228, 1986, 1990, 2136, 1987
 128,  213,  254,  252,  237, 1972, 2013, 2011, 1996
 129,  262,  252,  254,  289, 2021, 2011, 2013, 2048
 130,  235,  223,  218,  258, 1994, 1982, 1977, 2017
 131,  327,  303,  321,  323, 2086, 2062, 2080, 2082
 132,  236,  226,  224,  320, 1995, 1985, 1983, 2079
 133,  234,  236,  264,  249, 1993, 1995, 2023, 2008
 134,  267,  237,  252,  287, 2026, 1996, 2011, 2046
 135,  392,  290,  292,  263, 2151, 2049, 2051, 2022
 136,  276,  369,  370,  371, 2035, 2128, 2129, 2130
 137,  272,  281,  282,  374, 2031, 2040, 2041, 2133
 138,  304,  269,  281,  387, 2063, 2028, 2040, 2146
 139,  241,  225,  364,  375, 2000, 1984, 2123, 2134
 140,  373,  366,  188,  242, 2132, 2125, 1947, 2001
 141,  269,  246,  282,  281, 2028, 2005, 2041, 2040
 142,  187,  222,  212,  372, 1946, 1981, 1971, 2131
 143,  253,  248,  261,  380, 2012, 2007, 2020, 2139
 144,  320,  253,  268,  298, 2079, 2012, 2027, 2057
 145,  329,  342,  349,  327, 2088, 2101, 2108, 2086
 146,  389,  260,  376,  273, 2148, 2019, 2135, 2032
 147,  250,  232,  235,  390, 2009, 1991, 1994, 2149
 148,  251,  267,  288,  230, 2010, 2026, 2047, 1989
 149,  254,  213,  246,  269, 2013, 1972, 2005, 2028
 150,  383,  268,  242,  372, 2142, 2027, 2001, 2131
 151,  289,  254,  269,  304, 2048, 2013, 2028, 2063
 152,  382,  256,  307,  300, 2141, 2015, 2066, 2059
 153,  382,  255,  212,  247, 2141, 2014, 1971, 2006
 154,  239,  259,  275,  256, 1998, 2018, 2034, 2015
 155,  291,  381,  270,  368, 2050, 2140, 2029, 2127
 156,  225,  241,  272,  257, 1984, 2000, 2031, 2016
 157,  259,  239,  190,  370, 2018, 1998, 1949, 2129
 158,  386,  318,  280,  295, 2145, 2077, 2039, 2054
 159,  232,  250,  273,  376, 1991, 2009, 2032, 2135
 160,  375,  260,  389,  266, 2134, 2019, 2148, 2025
 161,  261,  175,  209,  373, 2020, 1934, 1968, 2132
 162,  307,  297,  384,  313, 2066, 2056, 2143, 2072
 163,  286,  298,  268,  383, 2045, 2057, 2027, 2142
 164,  238,  293,  299,  285, 1997, 2052, 2058, 2044
 165,  375,  266,  387,  241, 2134, 2025, 2146, 2000
 166,  389,  284,  294,  266, 2148, 2043, 2053, 2025
 167,  274,  357,  315,  317, 2033, 2116, 2074, 2076
 168,  268,  253,  380,  242, 2027, 2012, 2139, 2001
 169,  281,  272,  241,  387, 2040, 2031, 2000, 2146
 170,  280,  318,  194,  278, 2039, 2077, 1953, 2037
 171,  365,  169,  203,  221, 2124, 1928, 1962, 1980
 172,  221,  285,  271,  365, 1980, 2044, 2030, 2124
 173,  396,  273,  250,  390, 2155, 2032, 2009, 2149
 174,  278,  182,  306,  280, 2037, 1941, 2065, 2039
 175,  182,  363,  274,  306, 1941, 2122, 2033, 2065
 176,  309,  399,  398,  283, 2068, 2158, 2157, 2042
 177,  368,  270,  193,  277, 2127, 2029, 1952, 2036
 178,  379,  243,  216,  234, 2138, 2002, 1975, 1993
 179,  319,  328,  333,  384, 2078, 2087, 2092, 2143
 180,  283,  249,  264,  298, 2042, 2008, 2023, 2057
 181,  298,  286,  309,  283, 2057, 2045, 2068, 2042
 182,  301,  262,  303,  322, 2060, 2021, 2062, 2081
 183,  285,  299,  265,  258, 2044, 2058, 2024, 2017
 184,  395,  332,  391,  344, 2154, 2091, 2150, 2103
 185,  293,  238,  316,  332, 2052, 1997, 2075, 2091
 186,  255,  382,  300,  388, 2014, 2141, 2059, 2147
 187,  297,  307,  256,  275, 2056, 2066, 2015, 2034
 188,  302,  288,  267,  287, 2061, 2047, 2026, 2046
 189,  311,  295,  280,  306, 2070, 2054, 2039, 2065
 190,  304,  294,  321,  289, 2063, 2053, 2080, 2048
 191,  305,  335,  290,  398, 2064, 2094, 2049, 2157
 192,  392,  263,  249,  283, 2151, 2022, 2008, 2042
 193,  193,  270,  369,  276, 1952, 2029, 2128, 2035
 194,  310,  217,  338,  296, 2069, 1976, 2097, 2055
 195,  310,  337,  231,  378, 2069, 2096, 1990, 2137
 196,  294,  304,  387,  266, 2053, 2063, 2146, 2025
 197,  390,  265,  325,  396, 2149, 2024, 2084, 2155
 198,  306,  274,  317,  311, 2065, 2033, 2076, 2070
 199,  184,  279,  296,  338, 1943, 2038, 2055, 2097
 200,  324,  326,  352,  339, 2083, 2085, 2111, 2098
 201,  275,  381,  385,  297, 2034, 2140, 2144, 2056
 202,  320,  298,  264,  236, 2079, 2057, 2023, 1995
 203,  388,  300,  312,  324, 2147, 2059, 2071, 2083
 204,  303,  262,  289,  321, 2062, 2021, 2048, 2080
 205,  308,  402,  325,  397, 2067, 2161, 2084, 2156
 206,  287,  301,  314,  302, 2046, 2060, 2073, 2061
 207,  288,  302,  315,  357, 2047, 2061, 2074, 2116
 208,  308,  323,  284,  402, 2067, 2082, 2043, 2161
 209,  398,  290,  392,  283, 2157, 2049, 2151, 2042
 210,  326,  324,  312,  394, 2085, 2083, 2071, 2153
 211,  299,  397,  325,  265, 2058, 2156, 2084, 2024
 212,  286,  388,  324,  309, 2045, 2147, 2083, 2068
 213,  300,  307,  313,  312, 2059, 2066, 2072, 2071
 214,  331,  292,  290,  335, 2090, 2051, 2049, 2094
 215,  356,  315,  302,  314, 2115, 2074, 2061, 2073
 216,  319,  295,  311,  328, 2078, 2054, 2070, 2087
 217,  347,  346,  334,  322, 2106, 2105, 2093, 2081
 218,  301,  322,  334,  314, 2060, 2081, 2093, 2073
 219,  192,  357,  274,  363, 1951, 2116, 2033, 2122
 220,  332,  316,  233,  391, 2091, 2075, 1992, 2150
 221,  341,  328,  311,  317, 2100, 2087, 2070, 2076
 222,  368,  318,  386,  291, 2127, 2077, 2145, 2050
 223,  277,  194,  318,  368, 2036, 1953, 2077, 2127
 224,  385,  319,  384,  297, 2144, 2078, 2143, 2056
 225,  323,  321,  294,  284, 2082, 2080, 2053, 2043
 226,  329,  327,  323,  308, 2088, 2086, 2082, 2067
 227,  347,  322,  349,  350, 2106, 2081, 2108, 2109
 228,  402,  284,  396,  325, 2161, 2043, 2155, 2084
 229,  309,  324,  339,  399, 2068, 2083, 2098, 2158
 230,  303,  327,  349,  322, 2062, 2086, 2108, 2081
 231,  328,  341,  351,  333, 2087, 2100, 2110, 2092
 232,  342,  353,  350,  349, 2101, 2112, 2109, 2108
 233,  342,  400,  348,  353, 2101, 2159, 2107, 2112
 234,  358,  354,  335,  305, 2117, 2113, 2094, 2064
 235,  310,  296,  331,  337, 2069, 2055, 2090, 2096
 236,  293,  332,  395,  299, 2052, 2091, 2154, 2058
 237,  231,  337,  359,  377, 1990, 2096, 2118, 2136
 238,  343,  313,  384,  333, 2102, 2072, 2143, 2092
 239,  401,  305,  398,  399, 2160, 2064, 2157, 2158
 240,  345,  358,  305,  401, 2104, 2117, 2064, 2160
 241,  336,  329,  308,  397, 2095, 2088, 2067, 2156
 242,  337,  331,  340,  359, 2096, 2090, 2099, 2118
 243,  344,  340,  354,  330, 2103, 2099, 2113, 2089
 244,  340,  331,  335,  354, 2099, 2090, 2094, 2113
 245,  341,  356,  346,  351, 2100, 2115, 2105, 2110
 246,  356,  341,  317,  315, 2115, 2100, 2076, 2074
 247,  347,  350,  393,  352, 2106, 2109, 2152, 2111
 248,  329,  336,  400,  342, 2088, 2095, 2159, 2101
 249,  394,  343,  355,  326, 2153, 2102, 2114, 2085
 250,  330,  403,  395,  344, 2089, 2162, 2154, 2103
 251,  360,  353,  345,  401, 2119, 2112, 2104, 2160
 252,  314,  334,  346,  356, 2073, 2093, 2105, 2115
 253,  355,  351,  346,  347, 2114, 2110, 2105, 2106
 254,  348,  330,  354,  358, 2107, 2089, 2113, 2117
 255,  350,  353,  360,  393, 2109, 2112, 2119, 2152
 256,  343,  333,  351,  355, 2102, 2092, 2110, 2114
 257,  353,  348,  358,  345, 2112, 2107, 2117, 2104
 258,  401,  399,  339,  360, 2160, 2158, 2098, 2119
 259,  355,  347,  352,  326, 2114, 2106, 2111, 2085
 260,  391,  359,  340,  344, 2150, 2118, 2099, 2103
 261,  377,  359,  391,  233, 2136, 2118, 2150, 1992
 262,  352,  393,  360,  339, 2111, 2152, 2119, 2098
 263,  364,  361,  167,  185, 2123, 2120, 1926, 1944
 264,  366,  362,  176,  188, 2125, 2121, 1935, 1947
 265,  375,  364,  185,  260, 2134, 2123, 1944, 2019
 266,  367,  205,  178,  190, 2126, 1964, 1937, 1949
 267,  369,  270,  259,  370, 2128, 2029, 2018, 2129
 268,  374,  240,  257,  272, 2133, 1999, 2016, 2031
 269,  378,  219,  217,  310, 2137, 1978, 1976, 2069
 270,  381,  275,  259,  270, 2140, 2034, 2018, 2029
 271,  383,  255,  388,  286, 2142, 2014, 2147, 2045
 272,  386,  385,  381,  291, 2145, 2144, 2140, 2050
 273,  389,  273,  396,  284, 2148, 2032, 2155, 2043
 274,  394,  312,  313,  343, 2153, 2071, 2072, 2102
 275,  403,  397,  299,  395, 2162, 2156, 2058, 2154
 276,  330,  348,  400,  403, 2089, 2107, 2159, 2162
 277,  403,  400,  336,  397, 2162, 2159, 2095, 2156
 278,  666, 1924, 1914,  665,  716, 2177, 2167,  715
 279, 2120, 2123, 1984, 1966, 2373, 2376, 2237, 2219
 280, 1910,  672,  673, 1959, 2163,  722,  723, 2212
 281, 1927,  675,  676, 1961, 2180,  725,  726, 2214
 282, 1997, 2044, 1980, 1945, 2250, 2297, 2233, 2198
 283,  680, 1911, 1929,  679,  730, 2164, 2182,  729
 284, 1991, 1974, 1982, 1994, 2244, 2227, 2235, 2247
 285, 1963,  684,  685, 1931, 2216,  734,  735, 2184
 286, 1958, 2097, 1976, 1931, 2211, 2350, 2229, 2184
 287, 1912,  688,  689, 1956, 2165,  738,  739, 2209
 288, 1933,  691,  692, 1965, 2186,  741,  742, 2218
 289, 2079, 1983, 2007, 2012, 2332, 2236, 2260, 2265
 290,  697, 1915, 1935,  696,  747, 2168, 2188,  746
 291, 1915,  697,  698, 1936, 2168,  747,  748, 2189
 292, 1921,  660,  661, 1954, 2174,  710,  711, 2207
 293, 1922,  662,  663, 1955, 2175,  712,  713, 2208
 294,  665, 1914, 1923,  664,  715, 2167, 2176,  714
 295, 1957,  667,  668, 1925, 2210,  717,  718, 2178
 296,  701, 1916, 1937,  700,  751, 2169, 2190,  750
 297, 1931, 1976, 1978, 1963, 2184, 2229, 2231, 2216
 298, 1916, 1948, 1949, 1937, 2169, 2201, 2202, 2190
 299, 1981, 1936, 1964, 2126, 2234, 2189, 2217, 2379
 300, 2035, 1917, 1939, 1952, 2288, 2170, 2192, 2205
 301,  658, 1920, 1919,  657,  708, 2173, 2172,  707
 302, 1980, 1962, 1929, 1945, 2233, 2215, 2182, 2198
 303, 1954,  661,  662, 1922, 2207,  711,  712, 2175
 304, 1923, 1942, 1979, 1955, 2176, 2195, 2232, 2208
 305, 1954, 1989, 1951, 1921, 2207, 2242, 2204, 2174
 306, 1925,  668,  669, 1966, 2178,  718,  719, 2219
 307,  670, 2120, 1966,  669,  720, 2373, 2219,  719
 308,  672, 1910, 1926,  671,  722, 2163, 2179,  721
 309, 1959,  673,  674, 1970, 2212,  723,  724, 2223
 310, 1961,  676,  677, 1928, 2214,  726,  727, 2181
 311, 1911,  680,  681, 1960, 2164,  730,  731, 2213
 312, 1930,  683,  684, 1963, 2183,  733,  734, 2216
 313, 2055, 2038, 2051, 2090, 2308, 2291, 2304, 2343
 314,  688, 1912, 1932,  687,  738, 2165, 2185,  737
 315, 2017, 2024, 2149, 1994, 2270, 2277, 2402, 2247
 316, 1965,  692,  693, 1934, 2218,  742,  743, 2187
 317,  695, 2121, 1968,  694,  745, 2374, 2221,  744
 318, 2121, 2125, 2132, 1968, 2374, 2378, 2385, 2221
 319, 1947, 1935, 1915, 1946, 2200, 2188, 2168, 2199
 320, 1916,  701,  702, 1938, 2169,  751,  752, 2191
 321, 1938,  702,  703, 1917, 2191,  752,  753, 2170
 322, 1939,  704,  705, 1918, 2192,  754,  755, 2171
 323, 2129, 1949, 1948, 2130, 2382, 2202, 2201, 2383
 324, 1941, 2037, 1919, 1920, 2194, 2290, 2172, 2173
 325, 1960,  681,  682, 1969, 2213,  731,  732, 2222
 326, 1956,  689,  690, 1967, 2209,  739,  740, 2220
 327,  659, 1913, 1920,  658,  709, 2166, 2173,  708
 328, 1913,  659,  660, 1921, 2166,  709,  710, 2174
 329, 1924,  666,  667, 1957, 2177,  716,  717, 2210
 330, 1950, 1914, 1924, 1988, 2203, 2167, 2177, 2241
 331, 1936,  698,  699, 1964, 2189,  748,  749, 2217
 332, 1964,  699,  700, 1937, 2217,  749,  750, 2190
 333, 1917,  703,  704, 1939, 2170,  753,  754, 2192
 334, 2130, 1938, 1917, 2035, 2383, 2191, 2170, 2288
 335, 1918,  705,  706, 1940, 2171,  755,  756, 2193
 336, 1952, 1939, 1918, 2036, 2205, 2192, 2171, 2289
 337, 1940,  706,  657, 1919, 2193,  756,  707, 2172
 338, 2036, 1918, 1940, 1953, 2289, 2171, 2193, 2206
 339, 1920, 1913, 2122, 1941, 2173, 2166, 2375, 2194
 340, 1989, 1954, 1922, 2010, 2242, 2207, 2175, 2263
 341, 1955,  663,  664, 1923, 2208,  713,  714, 2176
 342, 1942, 1923, 1914, 1950, 2195, 2176, 2167, 2203
 343, 1999, 1957, 1925, 2016, 2252, 2210, 2178, 2269
 344, 1996, 1979, 1942, 1972, 2249, 2232, 2195, 2225
 345, 1944, 1926, 1910, 2003, 2197, 2179, 2163, 2256
 346, 2021, 2060, 2046, 2011, 2274, 2313, 2299, 2264
 347, 1974, 1959, 1970, 1982, 2227, 2212, 2223, 2235
 348, 1928,  677,  678, 1962, 2181,  727,  728, 2215
 349, 1962,  678,  679, 1929, 2215,  728,  729, 2182
 350, 1960, 1973, 2004, 1911, 2213, 2226, 2257, 2164
 351, 1973, 1992, 2075, 2004, 2226, 2245, 2328, 2257
 352, 1973, 1960, 1969, 1987, 2226, 2213, 2222, 2240
 353, 1931,  685,  686, 1958, 2184,  735,  736, 2211
 354, 1958,  686,  687, 1932, 2211,  736,  737, 2185
 355, 2097, 1958, 1932, 1943, 2350, 2211, 2185, 2196
 356, 1972, 1942, 1950, 2005, 2225, 2195, 2203, 2258
 357, 1975, 1956, 1967, 1985, 2228, 2209, 2220, 2238
 358, 1934,  693,  694, 1968, 2187,  743,  744, 2221
 359, 2131, 1971, 2014, 2142, 2384, 2224, 2267, 2395
 360, 2126, 1949, 1998, 2006, 2379, 2202, 2251, 2259
 361, 1916, 1938, 2130, 1948, 2169, 2191, 2383, 2201
 362, 1913, 1921, 1951, 2122, 2166, 2174, 2204, 2375
 363, 1985, 1995, 1993, 1975, 2238, 2248, 2246, 2228
 364, 1988, 1924, 1957, 1999, 2241, 2177, 2210, 2252
 365, 1943, 1932, 1912, 2002, 2196, 2185, 2165, 2255
 366, 1956, 1975, 2002, 1912, 2209, 2228, 2255, 2165
 367, 1959, 1974, 2003, 1910, 2212, 2227, 2256, 2163
 368, 2030, 1961, 1928, 2124, 2283, 2214, 2181, 2377
 369, 1945, 1929, 1911, 2004, 2198, 2182, 2164, 2257
 370, 1987, 2136, 1992, 1973, 2240, 2389, 2245, 2226
 371, 1946, 1915, 1936, 1981, 2199, 2168, 2189, 2234
 372, 1981, 2126, 2006, 1971, 2234, 2379, 2259, 2224
 373, 2007, 1965, 1934, 2020, 2260, 2218, 2187, 2273
 374, 2006, 1998, 2015, 2141, 2259, 2251, 2268, 2394
 375, 2041, 1988, 1999, 2133, 2294, 2241, 2252, 2386
 376, 1979, 1996, 2026, 2010, 2232, 2249, 2279, 2263
 377, 1989, 2047, 2116, 1951, 2242, 2300, 2369, 2204
 378, 1953, 1940, 1919, 2037, 2206, 2193, 2172, 2290
 379, 2145, 2054, 2078, 2144, 2398, 2307, 2331, 2397
 380, 1967,  690,  691, 1933, 2220,  740,  741, 2186
 381, 1970,  674,  675, 1927, 2223,  724,  725, 2180
 382, 1969,  682,  683, 1930, 2222,  732,  733, 2183
 383, 2120,  670,  671, 1926, 2373,  720,  721, 2179
 384, 1985, 1967, 1933, 1983, 2238, 2220, 2186, 2236
 385, 2121,  695,  696, 1935, 2374,  745,  746, 2188
 386, 1987, 1969, 1930, 1986, 2240, 2222, 2183, 2239
 387, 1982, 1970, 1927, 1977, 2235, 2223, 2180, 2230
 388, 2005, 1950, 1988, 2041, 2258, 2203, 2241, 2294
 389, 2135, 2003, 1974, 1991, 2388, 2256, 2227, 2244
 390, 2003, 2135, 2019, 1944, 2256, 2388, 2272, 2197
 391, 1977, 1927, 1961, 2030, 2230, 2180, 2214, 2283
 392, 2002, 2138, 2038, 1943, 2255, 2391, 2291, 2196
 393, 1983, 1933, 1965, 2007, 2236, 2186, 2218, 2260
 394, 2138, 2022, 2051, 2038, 2391, 2275, 2304, 2291
 395, 2017, 1977, 2030, 2044, 2270, 2230, 2283, 2297
 396, 2004, 2075, 1997, 1945, 2257, 2328, 2250, 2198
 397, 1978, 2137, 1990, 1986, 2231, 2390, 2243, 2239
 398, 1963, 1978, 1986, 1930, 2216, 2231, 2239, 2183
 399, 1922, 1955, 1979, 2010, 2175, 2208, 2232, 2263
 400, 2139, 2020, 2132, 2001, 2392, 2273, 2385, 2254
 401, 1993, 2008, 2022, 2138, 2246, 2261, 2275, 2391
 402, 1966, 1984, 2016, 1925, 2219, 2237, 2269, 2178
 403, 2131, 2001, 1947, 1946, 2384, 2254, 2200, 2199
 404, 1986, 1990, 2136, 1987, 2239, 2243, 2389, 2240
 405, 1972, 2013, 2011, 1996, 2225, 2266, 2264, 2249
 406, 2021, 2011, 2013, 2048, 2274, 2264, 2266, 2301
 407, 1994, 1982, 1977, 2017, 2247, 2235, 2230, 2270
 408, 2086, 2062, 2080, 2082, 2339, 2315, 2333, 2335
 409, 1995, 1985, 1983, 2079, 2248, 2238, 2236, 2332
 410, 1993, 1995, 2023, 2008, 2246, 2248, 2276, 2261
 411, 2026, 1996, 2011, 2046, 2279, 2249, 2264, 2299
 412, 2151, 2049, 2051, 2022, 2404, 2302, 2304, 2275
 413, 2035, 2128, 2129, 2130, 2288, 2381, 2382, 2383
 414, 2031, 2040, 2041, 2133, 2284, 2293, 2294, 2386
 415, 2063, 2028, 2040, 2146, 2316, 2281, 2293, 2399
 416, 2000, 1984, 2123, 2134, 2253, 2237, 2376, 2387
 417, 2132, 2125, 1947, 2001, 2385, 2378, 2200, 2254
 418, 2028, 2005, 2041, 2040, 2281, 2258, 2294, 2293
 419, 1946, 1981, 1971, 2131, 2199, 2234, 2224, 2384
 420, 2012, 2007, 2020, 2139, 2265, 2260, 2273, 2392
 421, 2079, 2012, 2027, 2057, 2332, 2265, 2280, 2310
 422, 2088, 2101, 2108, 2086, 2341, 2354, 2361, 2339
 423, 2148, 2019, 2135, 2032, 2401, 2272, 2388, 2285
 424, 2009, 1991, 1994, 2149, 2262, 2244, 2247, 2402
 425, 2010, 2026, 2047, 1989, 2263, 2279, 2300, 2242
 426, 2013, 1972, 2005, 2028, 2266, 2225, 2258, 2281
 427, 2142, 2027, 2001, 2131, 2395, 2280, 2254, 2384
 428, 2048, 2013, 2028, 2063, 2301, 2266, 2281, 2316
 429, 2141, 2015, 2066, 2059, 2394, 2268, 2319, 2312
 430, 2141, 2014, 1971, 2006, 2394, 2267, 2224, 2259
 431, 1998, 2018, 2034, 2015, 2251, 2271, 2287, 2268
 432, 2050, 2140, 2029, 2127, 2303, 2393, 2282, 2380
 433, 1984, 2000, 2031, 2016, 2237, 2253, 2284, 2269
 434, 2018, 1998, 1949, 2129, 2271, 2251, 2202, 2382
 435, 2145, 2077, 2039, 2054, 2398, 2330, 2292, 2307
 436, 1991, 2009, 2032, 2135, 2244, 2262, 2285, 2388
 437, 2134, 2019, 2148, 2025, 2387, 2272, 2401, 2278
 438, 2020, 1934, 1968, 2132, 2273, 2187, 2221, 2385
 439, 2066, 2056, 2143, 2072, 2319, 2309, 2396, 2325
 440, 2045, 2057, 2027, 2142, 2298, 2310, 2280, 2395
 441, 1997, 2052, 2058, 2044, 2250, 2305, 2311, 2297
 442, 2134, 2025, 2146, 2000, 2387, 2278, 2399, 2253
 443, 2148, 2043, 2053, 2025, 2401, 2296, 2306, 2278
 444, 2033, 2116, 2074, 2076, 2286, 2369, 2327, 2329
 445, 2027, 2012, 2139, 2001, 2280, 2265, 2392, 2254
 446, 2040, 2031, 2000, 2146, 2293, 2284, 2253, 2399
 447, 2039, 2077, 1953, 2037, 2292, 2330, 2206, 2290
 448, 2124, 1928, 1962, 1980, 2377, 2181, 2215, 2233
 449, 1980, 2044, 2030, 2124, 2233, 2297, 2283, 2377
 450, 2155, 2032, 2009, 2149, 2408, 2285, 2262, 2402
 451, 2037, 1941, 2065, 2039, 2290, 2194, 2318, 2292
 452, 1941, 2122, 2033, 2065, 2194, 2375, 2286, 2318
 453, 2068, 2158, 2157, 2042, 2321, 2411, 2410, 2295
 454, 2127, 2029, 1952, 2036, 2380, 2282, 2205, 2289
 455, 2138, 2002, 1975, 1993, 2391, 2255, 2228, 2246
 456, 2078, 2087, 2092, 2143, 2331, 2340, 2345, 2396
 457, 2042, 2008, 2023, 2057, 2295, 2261, 2276, 2310
 458, 2057, 2045, 2068, 2042, 2310, 2298, 2321, 2295
 459, 2060, 2021, 2062, 2081, 2313, 2274, 2315, 2334
 460, 2044, 2058, 2024, 2017, 2297, 2311, 2277, 2270
 461, 2154, 2091, 2150, 2103, 2407, 2344, 2403, 2356
 462, 2052, 1997, 2075, 2091, 2305, 2250, 2328, 2344
 463, 2014, 2141, 2059, 2147, 2267, 2394, 2312, 2400
 464, 2056, 2066, 2015, 2034, 2309, 2319, 2268, 2287
 465, 2061, 2047, 2026, 2046, 2314, 2300, 2279, 2299
 466, 2070, 2054, 2039, 2065, 2323, 2307, 2292, 2318
 467, 2063, 2053, 2080, 2048, 2316, 2306, 2333, 2301
 468, 2064, 2094, 2049, 2157, 2317, 2347, 2302, 2410
 469, 2151, 2022, 2008, 2042, 2404, 2275, 2261, 2295
 470, 1952, 2029, 2128, 2035, 2205, 2282, 2381, 2288
 471, 2069, 1976, 2097, 2055, 2322, 2229, 2350, 2308
 472, 2069, 2096, 1990, 2137, 2322, 2349, 2243, 2390
 473, 2053, 2063, 2146, 2025, 2306, 2316, 2399, 2278
 474, 2149, 2024, 2084, 2155, 2402, 2277, 2337, 2408
 475, 2065, 2033, 2076, 2070, 2318, 2286, 2329, 2323
 476, 1943, 2038, 2055, 2097, 2196, 2291, 2308, 2350
 477, 2083, 2085, 2111, 2098, 2336, 2338, 2364, 2351
 478, 2034, 2140, 2144, 2056, 2287, 2393, 2397, 2309
 479, 2079, 2057, 2023, 1995, 2332, 2310, 2276, 2248
 480, 2147, 2059, 2071, 2083, 2400, 2312, 2324, 2336
 481, 2062, 2021, 2048, 2080, 2315, 2274, 2301, 2333
 482, 2067, 2161, 2084, 2156, 2320, 2414, 2337, 2409
 483, 2046, 2060, 2073, 2061, 2299, 2313, 2326, 2314
 484, 2047, 2061, 2074, 2116, 2300, 2314, 2327, 2369
 485, 2067, 2082, 2043, 2161, 2320, 2335, 2296, 2414
 486, 2157, 2049, 2151, 2042, 2410, 2302, 2404, 2295
 487, 2085, 2083, 2071, 2153, 2338, 2336, 2324, 2406
 488, 2058, 2156, 2084, 2024, 2311, 2409, 2337, 2277
 489, 2045, 2147, 2083, 2068, 2298, 2400, 2336, 2321
 490, 2059, 2066, 2072, 2071, 2312, 2319, 2325, 2324
 491, 2090, 2051, 2049, 2094, 2343, 2304, 2302, 2347
 492, 2115, 2074, 2061, 2073, 2368, 2327, 2314, 2326
 493, 2078, 2054, 2070, 2087, 2331, 2307, 2323, 2340
 494, 2106, 2105, 2093, 2081, 2359, 2358, 2346, 2334
 495, 2060, 2081, 2093, 2073, 2313, 2334, 2346, 2326
 496, 1951, 2116, 2033, 2122, 2204, 2369, 2286, 2375
 497, 2091, 2075, 1992, 2150, 2344, 2328, 2245, 2403
 498, 2100, 2087, 2070, 2076, 2353, 2340, 2323, 2329
 499, 2127, 2077, 2145, 2050, 2380, 2330, 2398, 2303
 500, 2036, 1953, 2077, 2127, 2289, 2206, 2330, 2380
 501, 2144, 2078, 2143, 2056, 2397, 2331, 2396, 2309
 502, 2082, 2080, 2053, 2043, 2335, 2333, 2306, 2296
 503, 2088, 2086, 2082, 2067, 2341, 2339, 2335, 2320
 504, 2106, 2081, 2108, 2109, 2359, 2334, 2361, 2362
 505, 2161, 2043, 2155, 2084, 2414, 2296, 2408, 2337
 506, 2068, 2083, 2098, 2158, 2321, 2336, 2351, 2411
 507, 2062, 2086, 2108, 2081, 2315, 2339, 2361, 2334
 508, 2087, 2100, 2110, 2092, 2340, 2353, 2363, 2345
 509, 2101, 2112, 2109, 2108, 2354, 2365, 2362, 2361
 510, 2101, 2159, 2107, 2112, 2354, 2412, 2360, 2365
 511, 2117, 2113, 2094, 2064, 2370, 2366, 2347, 2317
 512, 2069, 2055, 2090, 2096, 2322, 2308, 2343, 2349
 513, 2052, 2091, 2154, 2058, 2305, 2344, 2407, 2311
 514, 1990, 2096, 2118, 2136, 2243, 2349, 2371, 2389
 515, 2102, 2072, 2143, 2092, 2355, 2325, 2396, 2345
 516, 2160, 2064, 2157, 2158, 2413, 2317, 2410, 2411
 517, 2104, 2117, 2064, 2160, 2357, 2370, 2317, 2413
 518, 2095, 2088, 2067, 2156, 2348, 2341, 2320, 2409
 519, 2096, 2090, 2099, 2118, 2349, 2343, 2352, 2371
 520, 2103, 2099, 2113, 2089, 2356, 2352, 2366, 2342
 521, 2099, 2090, 2094, 2113, 2352, 2343, 2347, 2366
 522, 2100, 2115, 2105, 2110, 2353, 2368, 2358, 2363
 523, 2115, 2100, 2076, 2074, 2368, 2353, 2329, 2327
 524, 2106, 2109, 2152, 2111, 2359, 2362, 2405, 2364
 525, 2088, 2095, 2159, 2101, 2341, 2348, 2412, 2354
 526, 2153, 2102, 2114, 2085, 2406, 2355, 2367, 2338
 527, 2089, 2162, 2154, 2103, 2342, 2415, 2407, 2356
 528, 2119, 2112, 2104, 2160, 2372, 2365, 2357, 2413
 529, 2073, 2093, 2105, 2115, 2326, 2346, 2358, 2368
 530, 2114, 2110, 2105, 2106, 2367, 2363, 2358, 2359
 531, 2107, 2089, 2113, 2117, 2360, 2342, 2366, 2370
 532, 2109, 2112, 2119, 2152, 2362, 2365, 2372, 2405
 533, 2102, 2092, 2110, 2114, 2355, 2345, 2363, 2367
 534, 2112, 2107, 2117, 2104, 2365, 2360, 2370, 2357
 535, 2160, 2158, 2098, 2119, 2413, 2411, 2351, 2372
 536, 2114, 2106, 2111, 2085, 2367, 2359, 2364, 2338
 537, 2150, 2118, 2099, 2103, 2403, 2371, 2352, 2356
 538, 2136, 2118, 2150, 1992, 2389, 2371, 2403, 2245
 539, 2111, 2152, 2119, 2098, 2364, 2405, 2372, 2351
 540, 2123, 2120, 1926, 1944, 2376, 2373, 2179, 2197
 541, 2125, 2121, 1935, 1947, 2378, 2374, 2188, 2200
 542, 2134, 2123, 1944, 2019, 2387, 2376, 2197, 2272
 543, 2126, 1964, 1937, 1949, 2379, 2217, 2190, 2202
 544, 2128, 2029, 2018, 2129, 2381, 2282, 2271, 2382
 545, 2133, 1999, 2016, 2031, 2386, 2252, 2269, 2284
 546, 2137, 1978, 1976, 2069, 2390, 2231, 2229, 2322
 547, 2140, 2034, 2018, 2029, 2393, 2287, 2271, 2282
 548, 2142, 2014, 2147, 2045, 2395, 2267, 2400, 2298
 549, 2145, 2144, 2140, 2050, 2398, 2397, 2393, 2303
 550, 2148, 2032, 2155, 2043, 2401, 2285, 2408, 2296
 551, 2153, 2071, 2072, 2102, 2406, 2324, 2325, 2355
 552, 2162, 2156, 2058, 2154, 2415, 2409, 2311, 2407
 553, 2089, 2107, 2159, 2162, 2342, 2360, 2412, 2415
 554, 2162, 2159, 2095, 2156, 2415, 2412, 2348, 2409
 555,  716, 2177, 2167,  715,  766, 2430, 2420,  765
 556, 2373, 2376, 2237, 2219, 2626, 2629, 2490, 2472
 557, 2163,  722,  723, 2212, 2416,  772,  773, 2465
 558, 2180,  725,  726, 2214, 2433,  775,  776, 2467
 559, 2250, 2297, 2233, 2198, 2503, 2550, 2486, 2451
 560,  730, 2164, 2182,  729,  780, 2417, 2435,  779
 561, 2244, 2227, 2235, 2247, 2497, 2480, 2488, 2500
 562, 2216,  734,  735, 2184, 2469,  784,  785, 2437
 563, 2211, 2350, 2229, 2184, 2464, 2603, 2482, 2437
 564, 2165,  738,  739, 2209, 2418,  788,  789, 2462
 565, 2186,  741,  742, 2218, 2439,  791,  792, 2471
 566, 2332, 2236, 2260, 2265, 2585, 2489, 2513, 2518
 567,  747, 2168, 2188,  746,  797, 2421, 2441,  796
 568, 2168,  747,  748, 2189, 2421,  797,  798, 2442
 569, 2174,  710,  711, 2207, 2427,  760,  761, 2460
 570, 2175,  712,  713, 2208, 2428,  762,  763, 2461
 571,  715, 2167, 2176,  714,  765, 2420, 2429,  764
 572, 2210,  717,  718, 2178, 2463,  767,  768, 2431
 573,  751, 2169, 2190,  750,  801, 2422, 2443,  800
 574, 2184, 2229, 2231, 2216, 2437, 2482, 2484, 2469
 575, 2169, 2201, 2202, 2190, 2422, 2454, 2455, 2443
 576, 2234, 2189, 2217, 2379, 2487, 2442, 2470, 2632
 577, 2288, 2170, 2192, 2205, 2541, 2423, 2445, 2458
 578,  708, 2173, 2172,  707,  758, 2426, 2425,  757
 579, 2233, 2215, 2182, 2198, 2486, 2468, 2435, 2451
 580, 2207,  711,  712, 2175, 2460,  761,  762, 2428
 581, 2176, 2195, 2232, 2208, 2429, 2448, 2485, 2461
 582, 2207, 2242, 2204, 2174, 2460, 2495, 2457, 2427
 583, 2178,  718,  719, 2219, 2431,  768,  769, 2472
 584,  720, 2373, 2219,  719,  770, 2626, 2472,  769
 585,  722, 2163, 2179,  721,  772, 2416, 2432,  771
 586, 2212,  723,  724, 2223, 2465,  773,  774, 2476
 587, 2214,  726,  727, 2181, 2467,  776,  777, 2434
 588, 2164,  730,  731, 2213, 2417,  780,  781, 2466
 589, 2183,  733,  734, 2216, 2436,  783,  784, 2469
 590, 2308, 2291, 2304, 2343, 2561, 2544, 2557, 2596
 591,  738, 2165, 2185,  737,  788, 2418, 2438,  787
 592, 2270, 2277, 2402, 2247, 2523, 2530, 2655, 2500
 593, 2218,  742,  743, 2187, 2471,  792,  793, 2440
 594,  745, 2374, 2221,  744,  795, 2627, 2474,  794
 595, 2374, 2378, 2385, 2221, 2627, 2631, 2638, 2474
 596, 2200, 2188, 2168, 2199, 2453, 2441, 2421, 2452
 597, 2169,  751,  752, 2191, 2422,  801,  802, 2444
 598, 2191,  752,  753, 2170, 2444,  802,  803, 2423
 599, 2192,  754,  755, 2171, 2445,  804,  805, 2424
 600, 2382, 2202, 2201, 2383, 2635, 2455, 2454, 2636
 601, 2194, 2290, 2172, 2173, 2447, 2543, 2425, 2426
 602, 2213,  731,  732, 2222, 2466,  781,  782, 2475
 603, 2209,  739,  740, 2220, 2462,  789,  790, 2473
 604,  709, 2166, 2173,  708,  759, 2419, 2426,  758
 605, 2166,  709,  710, 2174, 2419,  759,  760, 2427
 606, 2177,  716,  717, 2210, 2430,  766,  767, 2463
 607, 2203, 2167, 2177, 2241, 2456, 2420, 2430, 2494
 608, 2189,  748,  749, 2217, 2442,  798,  799, 2470
 609, 2217,  749,  750, 2190, 2470,  799,  800, 2443
 610, 2170,  753,  754, 2192, 2423,  803,  804, 2445
 611, 2383, 2191, 2170, 2288, 2636, 2444, 2423, 2541
 612, 2171,  755,  756, 2193, 2424,  805,  806, 2446
 613, 2205, 2192, 2171, 2289, 2458, 2445, 2424, 2542
 614, 2193,  756,  707, 2172, 2446,  806,  757, 2425
 615, 2289, 2171, 2193, 2206, 2542, 2424, 2446, 2459
 616, 2173, 2166, 2375, 2194, 2426, 2419, 2628, 2447
 617, 2242, 2207, 2175, 2263, 2495, 2460, 2428, 2516
 618, 2208,  713,  714, 2176, 2461,  763,  764, 2429
 619, 2195, 2176, 2167, 2203, 2448, 2429, 2420, 2456
 620, 2252, 2210, 2178, 2269, 2505, 2463, 2431, 2522
 621, 2249, 2232, 2195, 2225, 2502, 2485, 2448, 2478
 622, 2197, 2179, 2163, 2256, 2450, 2432, 2416, 2509
 623, 2274, 2313, 2299, 2264, 2527, 2566, 2552, 2517
 624, 2227, 2212, 2223, 2235, 2480, 2465, 2476, 2488
 625, 2181,  727,  728, 2215, 2434,  777,  778, 2468
 626, 2215,  728,  729, 2182, 2468,  778,  779, 2435
 627, 2213, 2226, 2257, 2164, 2466, 2479, 2510, 2417
 628, 2226, 2245, 2328, 2257, 2479, 2498, 2581, 2510
 629, 2226, 2213, 2222, 2240, 2479, 2466, 2475, 2493
 630, 2184,  735,  736, 2211, 2437,  785,  786, 2464
 631, 2211,  736,  737, 2185, 2464,  786,  787, 2438
 632, 2350, 2211, 2185, 2196, 2603, 2464, 2438, 2449
 633, 2225, 2195, 2203, 2258, 2478, 2448, 2456, 2511
 634, 2228, 2209, 2220, 2238, 2481, 2462, 2473, 2491
 635, 2187,  743,  744, 2221, 2440,  793,  794, 2474
 636, 2384, 2224, 2267, 2395, 2637, 2477, 2520, 2648
 637, 2379, 2202, 2251, 2259, 2632, 2455, 2504, 2512
 638, 2169, 2191, 2383, 2201, 2422, 2444, 2636, 2454
 639, 2166, 2174, 2204, 2375, 2419, 2427, 2457, 2628
 640, 2238, 2248, 2246, 2228, 2491, 2501, 2499, 2481
 641, 2241, 2177, 2210, 2252, 2494, 2430, 2463, 2505
 642, 2196, 2185, 2165, 2255, 2449, 2438, 2418, 2508
 643, 2209, 2228, 2255, 2165, 2462, 2481, 2508, 2418
 644, 2212, 2227, 2256, 2163, 2465, 2480, 2509, 2416
 645, 2283, 2214, 2181, 2377, 2536, 2467, 2434, 2630
 646, 2198, 2182, 2164, 2257, 2451, 2435, 2417, 2510
 647, 2240, 2389, 2245, 2226, 2493, 2642, 2498, 2479
 648, 2199, 2168, 2189, 2234, 2452, 2421, 2442, 2487
 649, 2234, 2379, 2259, 2224, 2487, 2632, 2512, 2477
 650, 2260, 2218, 2187, 2273, 2513, 2471, 2440, 2526
 651, 2259, 2251, 2268, 2394, 2512, 2504, 2521, 2647
 652, 2294, 2241, 2252, 2386, 2547, 2494, 2505, 2639
 653, 2232, 2249, 2279, 2263, 2485, 2502, 2532, 2516
 654, 2242, 2300, 2369, 2204, 2495, 2553, 2622, 2457
 655, 2206, 2193, 2172, 2290, 2459, 2446, 2425, 2543
 656, 2398, 2307, 2331, 2397, 2651, 2560, 2584, 2650
 657, 2220,  740,  741, 2186, 2473,  790,  791, 2439
 658, 2223,  724,  725, 2180, 2476,  774,  775, 2433
 659, 2222,  732,  733, 2183, 2475,  782,  783, 2436
 660, 2373,  720,  721, 2179, 2626,  770,  771, 2432
 661, 2238, 2220, 2186, 2236, 2491, 2473, 2439, 2489
 662, 2374,  745,  746, 2188, 2627,  795,  796, 2441
 663, 2240, 2222, 2183, 2239, 2493, 2475, 2436, 2492
 664, 2235, 2223, 2180, 2230, 2488, 2476, 2433, 2483
 665, 2258, 2203, 2241, 2294, 2511, 2456, 2494, 2547
 666, 2388, 2256, 2227, 2244, 2641, 2509, 2480, 2497
 667, 2256, 2388, 2272, 2197, 2509, 2641, 2525, 2450
 668, 2230, 2180, 2214, 2283, 2483, 2433, 2467, 2536
 669, 2255, 2391, 2291, 2196, 2508, 2644, 2544, 2449
 670, 2236, 2186, 2218, 2260, 2489, 2439, 2471, 2513
 671, 2391, 2275, 2304, 2291, 2644, 2528, 2557, 2544
 672, 2270, 2230, 2283, 2297, 2523, 2483, 2536, 2550
 673, 2257, 2328, 2250, 2198, 2510, 2581, 2503, 2451
 674, 2231, 2390, 2243, 2239, 2484, 2643, 2496, 2492
 675, 2216, 2231, 2239, 2183, 2469, 2484, 2492, 2436
 676, 2175, 2208, 2232, 2263, 2428, 2461, 2485, 2516
 677, 2392, 2273, 2385, 2254, 2645, 2526, 2638, 2507
 678, 2246, 2261, 2275, 2391, 2499, 2514, 2528, 2644
 679, 2219, 2237, 2269, 2178, 2472, 2490, 2522, 2431
 680, 2384, 2254, 2200, 2199, 2637, 2507, 2453, 2452
 681, 2239, 2243, 2389, 2240, 2492, 2496, 2642, 2493
 682, 2225, 2266, 2264, 2249, 2478, 2519, 2517, 2502
 683, 2274, 2264, 2266, 2301, 2527, 2517, 2519, 2554
 684, 2247, 2235, 2230, 2270, 2500, 2488, 2483, 2523
 685, 2339, 2315, 2333, 2335, 2592, 2568, 2586, 2588
 686, 2248, 2238, 2236, 2332, 2501, 2491, 2489, 2585
 687, 2246, 2248, 2276, 2261, 2499, 2501, 2529, 2514
 688, 2279, 2249, 2264, 2299, 2532, 2502, 2517, 2552
 689, 2404, 2302, 2304, 2275, 2657, 2555, 2557, 2528
 690, 2288, 2381, 2382, 2383, 2541, 2634, 2635, 2636
 691, 2284, 2293, 2294, 2386, 2537, 2546, 2547, 2639
 692, 2316, 2281, 2293, 2399, 2569, 2534, 2546, 2652
 693, 2253, 2237, 2376, 2387, 2506, 2490, 2629, 2640
 694, 2385, 2378, 2200, 2254, 2638, 2631, 2453, 2507
 695, 2281, 2258, 2294, 2293, 2534, 2511, 2547, 2546
 696, 2199, 2234, 2224, 2384, 2452, 2487, 2477, 2637
 697, 2265, 2260, 2273, 2392, 2518, 2513, 2526, 2645
 698, 2332, 2265, 2280, 2310, 2585, 2518, 2533, 2563
 699, 2341, 2354, 2361, 2339, 2594, 2607, 2614, 2592
 700, 2401, 2272, 2388, 2285, 2654, 2525, 2641, 2538
 701, 2262, 2244, 2247, 2402, 2515, 2497, 2500, 2655
 702, 2263, 2279, 2300, 2242, 2516, 2532, 2553, 2495
 703, 2266, 2225, 2258, 2281, 2519, 2478, 2511, 2534
 704, 2395, 2280, 2254, 2384, 2648, 2533, 2507, 2637
 705, 2301, 2266, 2281, 2316, 2554, 2519, 2534, 2569
 706, 2394, 2268, 2319, 2312, 2647, 2521, 2572, 2565
 707, 2394, 2267, 2224, 2259, 2647, 2520, 2477, 2512
 708, 2251, 2271, 2287, 2268, 2504, 2524, 2540, 2521
 709, 2303, 2393, 2282, 2380, 2556, 2646, 2535, 2633
 710, 2237, 2253, 2284, 2269, 2490, 2506, 2537, 2522
 711, 2271, 2251, 2202, 2382, 2524, 2504, 2455, 2635
 712, 2398, 2330, 2292, 2307, 2651, 2583, 2545, 2560
 713, 2244, 2262, 2285, 2388, 2497, 2515, 2538, 2641
 714, 2387, 2272, 2401, 2278, 2640, 2525, 2654, 2531
 715, 2273, 2187, 2221, 2385, 2526, 2440, 2474, 2638
 716, 2319, 2309, 2396, 2325, 2572, 2562, 2649, 2578
 717, 2298, 2310, 2280, 2395, 2551, 2563, 2533, 2648
 718, 2250, 2305, 2311, 2297, 2503, 2558, 2564, 2550
 719, 2387, 2278, 2399, 2253, 2640, 2531, 2652, 2506
 720, 2401, 2296, 2306, 2278, 2654, 2549, 2559, 2531
 721, 2286, 2369, 2327, 2329, 2539, 2622, 2580, 2582
 722, 2280, 2265, 2392, 2254, 2533, 2518, 2645, 2507
 723, 2293, 2284, 2253, 2399, 2546, 2537, 2506, 2652
 724, 2292, 2330, 2206, 2290, 2545, 2583, 2459, 2543
 725, 2377, 2181, 2215, 2233, 2630, 2434, 2468, 2486
 726, 2233, 2297, 2283, 2377, 2486, 2550, 2536, 2630
 727, 2408, 2285, 2262, 2402, 2661, 2538, 2515, 2655
 728, 2290, 2194, 2318, 2292, 2543, 2447, 2571, 2545
 729, 2194, 2375, 2286, 2318, 2447, 2628, 2539, 2571
 730, 2321, 2411, 2410, 2295, 2574, 2664, 2663, 2548
 731, 2380, 2282, 2205, 2289, 2633, 2535, 2458, 2542
 732, 2391, 2255, 2228, 2246, 2644, 2508, 2481, 2499
 733, 2331, 2340, 2345, 2396, 2584, 2593, 2598, 2649
 734, 2295, 2261, 2276, 2310, 2548, 2514, 2529, 2563
 735, 2310, 2298, 2321, 2295, 2563, 2551, 2574, 2548
 736, 2313, 2274, 2315, 2334, 2566, 2527, 2568, 2587
 737, 2297, 2311, 2277, 2270, 2550, 2564, 2530, 2523
 738, 2407, 2344, 2403, 2356, 2660, 2597, 2656, 2609
 739, 2305, 2250, 2328, 2344, 2558, 2503, 2581, 2597
 740, 2267, 2394, 2312, 2400, 2520, 2647, 2565, 2653
 741, 2309, 2319, 2268, 2287, 2562, 2572, 2521, 2540
 742, 2314, 2300, 2279, 2299, 2567, 2553, 2532, 2552
 743, 2323, 2307, 2292, 2318, 2576, 2560, 2545, 2571
 744, 2316, 2306, 2333, 2301, 2569, 2559, 2586, 2554
 745, 2317, 2347, 2302, 2410, 2570, 2600, 2555, 2663
 746, 2404, 2275, 2261, 2295, 2657, 2528, 2514, 2548
 747, 2205, 2282, 2381, 2288, 2458, 2535, 2634, 2541
 748, 2322, 2229, 2350, 2308, 2575, 2482, 2603, 2561
 749, 2322, 2349, 2243, 2390, 2575, 2602, 2496, 2643
 750, 2306, 2316, 2399, 2278, 2559, 2569, 2652, 2531
 751, 2402, 2277, 2337, 2408, 2655, 2530, 2590, 2661
 752, 2318, 2286, 2329, 2323, 2571, 2539, 2582, 2576
 753, 2196, 2291, 2308, 2350, 2449, 2544, 2561, 2603
 754, 2336, 2338, 2364, 2351, 2589, 2591, 2617, 2604
 755, 2287, 2393, 2397, 2309, 2540, 2646, 2650, 2562
 756, 2332, 2310, 2276, 2248, 2585, 2563, 2529, 2501
 757, 2400, 2312, 2324, 2336, 2653, 2565, 2577, 2589
 758, 2315, 2274, 2301, 2333, 2568, 2527, 2554, 2586
 759, 2320, 2414, 2337, 2409, 2573, 2667, 2590, 2662
 760, 2299, 2313, 2326, 2314, 2552, 2566, 2579, 2567
 761, 2300, 2314, 2327, 2369, 2553, 2567, 2580, 2622
 762, 2320, 2335, 2296, 2414, 2573, 2588, 2549, 2667
 763, 2410, 2302, 2404, 2295, 2663, 2555, 2657, 2548
 764, 2338, 2336, 2324, 2406, 2591, 2589, 2577, 2659
 765, 2311, 2409, 2337, 2277, 2564, 2662, 2590, 2530
 766, 2298, 2400, 2336, 2321, 2551, 2653, 2589, 2574
 767, 2312, 2319, 2325, 2324, 2565, 2572, 2578, 2577
 768, 2343, 2304, 2302, 2347, 2596, 2557, 2555, 2600
 769, 2368, 2327, 2314, 2326, 2621, 2580, 2567, 2579
 770, 2331, 2307, 2323, 2340, 2584, 2560, 2576, 2593
 771, 2359, 2358, 2346, 2334, 2612, 2611, 2599, 2587
 772, 2313, 2334, 2346, 2326, 2566, 2587, 2599, 2579
 773, 2204, 2369, 2286, 2375, 2457, 2622, 2539, 2628
 774, 2344, 2328, 2245, 2403, 2597, 2581, 2498, 2656
 775, 2353, 2340, 2323, 2329, 2606, 2593, 2576, 2582
 776, 2380, 2330, 2398, 2303, 2633, 2583, 2651, 2556
 777, 2289, 2206, 2330, 2380, 2542, 2459, 2583, 2633
 778, 2397, 2331, 2396, 2309, 2650, 2584, 2649, 2562
 779, 2335, 2333, 2306, 2296, 2588, 2586, 2559, 2549
 780, 2341, 2339, 2335, 2320, 2594, 2592, 2588, 2573
 781, 2359, 2334, 2361, 2362, 2612, 2587, 2614, 2615
 782, 2414, 2296, 2408, 2337, 2667, 2549, 2661, 2590
 783, 2321, 2336, 2351, 2411, 2574, 2589, 2604, 2664
 784, 2315, 2339, 2361, 2334, 2568, 2592, 2614, 2587
 785, 2340, 2353, 2363, 2345, 2593, 2606, 2616, 2598
 786, 2354, 2365, 2362, 2361, 2607, 2618, 2615, 2614
 787, 2354, 2412, 2360, 2365, 2607, 2665, 2613, 2618
 788, 2370, 2366, 2347, 2317, 2623, 2619, 2600, 2570
 789, 2322, 2308, 2343, 2349, 2575, 2561, 2596, 2602
 790, 2305, 2344, 2407, 2311, 2558, 2597, 2660, 2564
 791, 2243, 2349, 2371, 2389, 2496, 2602, 2624, 2642
 792, 2355, 2325, 2396, 2345, 2608, 2578, 2649, 2598
 793, 2413, 2317, 2410, 2411, 2666, 2570, 2663, 2664
 794, 2357, 2370, 2317, 2413, 2610, 2623, 2570, 2666
 795, 2348, 2341, 2320, 2409, 2601, 2594, 2573, 2662
 796, 2349, 2343, 2352, 2371, 2602, 2596, 2605, 2624
 797, 2356, 2352, 2366, 2342, 2609, 2605, 2619, 2595
 798, 2352, 2343, 2347, 2366, 2605, 2596, 2600, 2619
 799, 2353, 2368, 2358, 2363, 2606, 2621, 2611, 2616
 800, 2368, 2353, 2329, 2327, 2621, 2606, 2582, 2580
 801, 2359, 2362, 2405, 2364, 2612, 2615, 2658, 2617
 802, 2341, 2348, 2412, 2354, 2594, 2601, 2665, 2607
 803, 2406, 2355, 2367, 2338, 2659, 2608, 2620, 2591
 804, 2342, 2415, 2407, 2356, 2595, 2668, 2660, 2609
 805, 2372, 2365, 2357, 2413, 2625, 2618, 2610, 2666
 806, 2326, 2346, 2358, 2368, 2579, 2599, 2611, 2621
 807, 2367, 2363, 2358, 2359, 2620, 2616, 2611, 2612
 808, 2360, 2342, 2366, 2370, 2613, 2595, 2619, 2623
 809, 2362, 2365, 2372, 2405, 2615, 2618, 2625, 2658
 810, 2355, 2345, 2363, 2367, 2608, 2598, 2616, 2620
 811, 2365, 2360, 2370, 2357, 2618, 2613, 2623, 2610
 812, 2413, 2411, 2351, 2372, 2666, 2664, 2604, 2625
 813, 2367, 2359, 2364, 2338, 2620, 2612, 2617, 2591
 814, 2403, 2371, 2352, 2356, 2656, 2624, 2605, 2609
 815, 2389, 2371, 2403, 2245, 2642, 2624, 2656, 2498
 816, 2364, 2405, 2372, 2351, 2617, 2658, 2625, 2604
 817, 2376, 2373, 2179, 2197, 2629, 2626, 2432, 2450
 818, 2378, 2374, 2188, 2200, 2631, 2627, 2441, 2453
 819, 2387, 2376, 2197, 2272, 2640, 2629, 2450, 2525
 820, 2379, 2217, 2190, 2202, 2632, 2470, 2443, 2455
 821, 2381, 2282, 2271, 2382, 2634, 2535, 2524, 2635
 822, 2386, 2252, 2269, 2284, 2639, 2505, 2522, 2537
 823, 2390, 2231, 2229, 2322, 2643, 2484, 2482, 2575
 824, 2393, 2287, 2271, 2282, 2646, 2540, 2524, 2535
 825, 2395, 2267, 2400, 2298, 2648, 2520, 2653, 2551
 826, 2398, 2397, 2393, 2303, 2651, 2650, 2646, 2556
 827, 2401, 2285, 2408, 2296, 2654, 2538, 2661, 2549
 828, 2406, 2324, 2325, 2355, 2659, 2577, 2578, 2608
 829, 2415, 2409, 2311, 2407, 2668, 2662, 2564, 2660
 830, 2342, 2360, 2412, 2415, 2595, 2613, 2665, 2668
 831, 2415, 2412, 2348, 2409, 2668, 2665, 2601, 2662
 832,  766, 2430, 2420,  765,  816, 2683, 2673,  815
 833, 2626, 2629, 2490, 2472, 2879, 2882, 2743, 2725
 834, 2416,  772,  773, 2465, 2669,  822,  823, 2718
 835, 2433,  775,  776, 2467, 2686,  825,  826, 2720
 836, 2503, 2550, 2486, 2451, 2756, 2803, 2739, 2704
 837,  780, 2417, 2435,  779,  830, 2670, 2688,  829
 838, 2497, 2480, 2488, 2500, 2750, 2733, 2741, 2753
 839, 2469,  784,  785, 2437, 2722,  834,  835, 2690
 840, 2464, 2603, 2482, 2437, 2717, 2856, 2735, 2690
 841, 2418,  788,  789, 2462, 2671,  838,  839, 2715
 842, 2439,  791,  792, 2471, 2692,  841,  842, 2724
 843, 2585, 2489, 2513, 2518, 2838, 2742, 2766, 2771
 844,  797, 2421, 2441,  796,  847, 2674, 2694,  846
 845, 2421,  797,  798, 2442, 2674,  847,  848, 2695
 846, 2427,  760,  761, 2460, 2680,  810,  811, 2713
 847, 2428,  762,  763, 2461, 2681,  812,  813, 2714
 848,  765, 2420, 2429,  764,  815, 2673, 2682,  814
 849, 2463,  767,  768, 2431, 2716,  817,  818, 2684
 850,  801, 2422, 2443,  800,  851, 2675, 2696,  850
 851, 2437, 2482, 2484, 2469, 2690, 2735, 2737, 2722
 852, 2422, 2454, 2455, 2443, 2675, 2707, 2708, 2696
 853, 2487, 2442, 2470, 2632, 2740, 2695, 2723, 2885
 854, 2541, 2423, 2445, 2458, 2794, 2676, 2698, 2711
 855,  758, 2426, 2425,  757,  808, 2679, 2678,  807
 856, 2486, 2468, 2435, 2451, 2739, 2721, 2688, 2704
 857, 2460,  761,  762, 2428, 2713,  811,  812, 2681
 858, 2429, 2448, 2485, 2461, 2682, 2701, 2738, 2714
 859, 2460, 2495, 2457, 2427, 2713, 2748, 2710, 2680
 860, 2431,  768,  769, 2472, 2684,  818,  819, 2725
 861,  770, 2626, 2472,  769,  820, 2879, 2725,  819
 862,  772, 2416, 2432,  771,  822, 2669, 2685,  821
 863, 2465,  773,  774, 2476, 2718,  823,  824, 2729
 864, 2467,  776,  777, 2434, 2720,  826,  827, 2687
 865, 2417,  780,  781, 2466, 2670,  830,  831, 2719
 866, 2436,  783,  784, 2469, 2689,  833,  834, 2722
 867, 2561, 2544, 2557, 2596, 2814, 2797, 2810, 2849
 868,  788, 2418, 2438,  787,  838, 2671, 2691,  837
 869, 2523, 2530, 2655, 2500, 2776, 2783, 2908, 2753
 870, 2471,  792,  793, 2440, 2724,  842,  843, 2693
 871,  795, 2627, 2474,  794,  845, 2880, 2727,  844
 872, 2627, 2631, 2638, 2474, 2880, 2884, 2891, 2727
 873, 2453, 2441, 2421, 2452, 2706, 2694, 2674, 2705
 874, 2422,  801,  802, 2444, 2675,  851,  852, 2697
 875, 2444,  802,  803, 2423, 2697,  852,  853, 2676
 876, 2445,  804,  805, 2424, 2698,  854,  855, 2677
 877, 2635, 2455, 2454, 2636, 2888, 2708, 2707, 2889
 878, 2447, 2543, 2425, 2426, 2700, 2796, 2678, 2679
 879, 2466,  781,  782, 2475, 2719,  831,  832, 2728
 880, 2462,  789,  790, 2473, 2715,  839,  840, 2726
 881,  759, 2419, 2426,  758,  809, 2672, 2679,  808
 882, 2419,  759,  760, 2427, 2672,  809,  810, 2680
 883, 2430,  766,  767, 2463, 2683,  816,  817, 2716
 884, 2456, 2420, 2430, 2494, 2709, 2673, 2683, 2747
 885, 2442,  798,  799, 2470, 2695,  848,  849, 2723
 886, 2470,  799,  800, 2443, 2723,  849,  850, 2696
 887, 2423,  803,  804, 2445, 2676,  853,  854, 2698
 888, 2636, 2444, 2423, 2541, 2889, 2697, 2676, 2794
 889, 2424,  805,  806, 2446, 2677,  855,  856, 2699
 890, 2458, 2445, 2424, 2542, 2711, 2698, 2677, 2795
 891, 2446,  806,  757, 2425, 2699,  856,  807, 2678
 892, 2542, 2424, 2446, 2459, 2795, 2677, 2699, 2712
 893, 2426, 2419, 2628, 2447, 2679, 2672, 2881, 2700
 894, 2495, 2460, 2428, 2516, 2748, 2713, 2681, 2769
 895, 2461,  763,  764, 2429, 2714,  813,  814, 2682
 896, 2448, 2429, 2420, 2456, 2701, 2682, 2673, 2709
 897, 2505, 2463, 2431, 2522, 2758, 2716, 2684, 2775
 898, 2502, 2485, 2448, 2478, 2755, 2738, 2701, 2731
 899, 2450, 2432, 2416, 2509, 2703, 2685, 2669, 2762
 900, 2527, 2566, 2552, 2517, 2780, 2819, 2805, 2770
 901, 2480, 2465, 2476, 2488, 2733, 2718, 2729, 2741
 902, 2434,  777,  778, 2468, 2687,  827,  828, 2721
 903, 2468,  778,  779, 2435, 2721,  828,  829, 2688
 904, 2466, 2479, 2510, 2417, 2719, 2732, 2763, 2670
 905, 2479, 2498, 2581, 2510, 2732, 2751, 2834, 2763
 906, 2479, 2466, 2475, 2493, 2732, 2719, 2728, 2746
 907, 2437,  785,  786, 2464, 2690,  835,  836, 2717
 908, 2464,  786,  787, 2438, 2717,  836,  837, 2691
 909, 2603, 2464, 2438, 2449, 2856, 2717, 2691, 2702
 910, 2478, 2448, 2456, 2511, 2731, 2701, 2709, 2764
 911, 2481, 2462, 2473, 2491, 2734, 2715, 2726, 2744
 912, 2440,  793,  794, 2474, 2693,  843,  844, 2727
 913, 2637, 2477, 2520, 2648, 2890, 2730, 2773, 2901
 914, 2632, 2455, 2504, 2512, 2885, 2708, 2757, 2765
 915, 2422, 2444, 2636, 2454, 2675, 2697, 2889, 2707
 916, 2419, 2427, 2457, 2628, 2672, 2680, 2710, 2881
 917, 2491, 2501, 2499, 2481, 2744, 2754, 2752, 2734
 918, 2494, 2430, 2463, 2505, 2747, 2683, 2716, 2758
 919, 2449, 2438, 2418, 2508, 2702, 2691, 2671, 2761
 920, 2462, 2481, 2508, 2418, 2715, 2734, 2761, 2671
 921, 2465, 2480, 2509, 2416, 2718, 2733, 2762, 2669
 922, 2536, 2467, 2434, 2630, 2789, 2720, 2687, 2883
 923, 2451, 2435, 2417, 2510, 2704, 2688, 2670, 2763
 924, 2493, 2642, 2498, 2479, 2746, 2895, 2751, 2732
 925, 2452, 2421, 2442, 2487, 2705, 2674, 2695, 2740
 926, 2487, 2632, 2512, 2477, 2740, 2885, 2765, 2730
 927, 2513, 2471, 2440, 2526, 2766, 2724, 2693, 2779
 928, 2512, 2504, 2521, 2647, 2765, 2757, 2774, 2900
 929, 2547, 2494, 2505, 2639, 2800, 2747, 2758, 2892
 930, 2485, 2502, 2532, 2516, 2738, 2755, 2785, 2769
 931, 2495, 2553, 2622, 2457, 2748, 2806, 2875, 2710
 932, 2459, 2446, 2425, 2543, 2712, 2699, 2678, 2796
 933, 2651, 2560, 2584, 2650, 2904, 2813, 2837, 2903
 934, 2473,  790,  791, 2439, 2726,  840,  841, 2692
 935, 2476,  774,  775, 2433, 2729,  824,  825, 2686
 936, 2475,  782,  783, 2436, 2728,  832,  833, 2689
 937, 2626,  770,  771, 2432, 2879,  820,  821, 2685
 938, 2491, 2473, 2439, 2489, 2744, 2726, 2692, 2742
 939, 2627,  795,  796, 2441, 2880,  845,  846, 2694
 940, 2493, 2475, 2436, 2492, 2746, 2728, 2689, 2745
 941, 2488, 2476, 2433, 2483, 2741, 2729, 2686, 2736
 942, 2511, 2456, 2494, 2547, 2764, 2709, 2747, 2800
 943, 2641, 2509, 2480, 2497, 2894, 2762, 2733, 2750
 944, 2509, 2641, 2525, 2450, 2762, 2894, 2778, 2703
 945, 2483, 2433, 2467, 2536, 2736, 2686, 2720, 2789
 946, 2508, 2644, 2544, 2449, 2761, 2897, 2797, 2702
 947, 2489, 2439, 2471, 2513, 2742, 2692, 2724, 2766
 948, 2644, 2528, 2557, 2544, 2897, 2781, 2810, 2797
 949, 2523, 2483, 2536, 2550, 2776, 2736, 2789, 2803
 950, 2510, 2581, 2503, 2451, 2763, 2834, 2756, 2704
 951, 2484, 2643, 2496, 2492, 2737, 2896, 2749, 2745
 952, 2469, 2484, 2492, 2436, 2722, 2737, 2745, 2689
 953, 2428, 2461, 2485, 2516, 2681, 2714, 2738, 2769
 954, 2645, 2526, 2638, 2507, 2898, 2779, 2891, 2760
 955, 2499, 2514, 2528, 2644, 2752, 2767, 2781, 2897
 956, 2472, 2490, 2522, 2431, 2725, 2743, 2775, 2684
 957, 2637, 2507, 2453, 2452, 2890, 2760, 2706, 2705
 958, 2492, 2496, 2642, 2493, 2745, 2749, 2895, 2746
 959, 2478, 2519, 2517, 2502, 2731, 2772, 2770, 2755
 960, 2527, 2517, 2519, 2554, 2780, 2770, 2772, 2807
 961, 2500, 2488, 2483, 2523, 2753, 2741, 2736, 2776
 962, 2592, 2568, 2586, 2588, 2845, 2821, 2839, 2841
 963, 2501, 2491, 2489, 2585, 2754, 2744, 2742, 2838
 964, 2499, 2501, 2529, 2514, 2752, 2754, 2782, 2767
 965, 2532, 2502, 2517, 2552, 2785, 2755, 2770, 2805
 966, 2657, 2555, 2557, 2528, 2910, 2808, 2810, 2781
 967, 2541, 2634, 2635, 2636, 2794, 2887, 2888, 2889
 968, 2537, 2546, 2547, 2639, 2790, 2799, 2800, 2892
 969, 2569, 2534, 2546, 2652, 2822, 2787, 2799, 2905
 970, 2506, 2490, 2629, 2640, 2759, 2743, 2882, 2893
 971, 2638, 2631, 2453, 2507, 2891, 2884, 2706, 2760
 972, 2534, 2511, 2547, 2546, 2787, 2764, 2800, 2799
 973, 2452, 2487, 2477, 2637, 2705, 2740, 2730, 2890
 974, 2518, 2513, 2526, 2645, 2771, 2766, 2779, 2898
 975, 2585, 2518, 2533, 2563, 2838, 2771, 2786, 2816
 976, 2594, 2607, 2614, 2592, 2847, 2860, 2867, 2845
 977, 2654, 2525, 2641, 2538, 2907, 2778, 2894, 2791
 978, 2515, 2497, 2500, 2655, 2768, 2750, 2753, 2908
 979, 2516, 2532, 2553, 2495, 2769, 2785, 2806, 2748
 980, 2519, 2478, 2511, 2534, 2772, 2731, 2764, 2787
 981, 2648, 2533, 2507, 2637, 2901, 2786, 2760, 2890
 982, 2554, 2519, 2534, 2569, 2807, 2772, 2787, 2822
 983, 2647, 2521, 2572, 2565, 2900, 2774, 2825, 2818
 984, 2647, 2520, 2477, 2512, 2900, 2773, 2730, 2765
 985, 2504, 2524, 2540, 2521, 2757, 2777, 2793, 2774
 986, 2556, 2646, 2535, 2633, 2809, 2899, 2788, 2886
 987, 2490, 2506, 2537, 2522, 2743, 2759, 2790, 2775
 988, 2524, 2504, 2455, 2635, 2777, 2757, 2708, 2888
 989, 2651, 2583, 2545, 2560, 2904, 2836, 2798, 2813
 990, 2497, 2515, 2538, 2641, 2750, 2768, 2791, 2894
 991, 2640, 2525, 2654, 2531, 2893, 2778, 2907, 2784
 992, 2526, 2440, 2474, 2638, 2779, 2693, 2727, 2891
 993, 2572, 2562, 2649, 2578, 2825, 2815, 2902, 2831
 994, 2551, 2563, 2533, 2648, 2804, 2816, 2786, 2901
 995, 2503, 2558, 2564, 2550, 2756, 2811, 2817, 2803
 996, 2640, 2531, 2652, 2506, 2893, 2784, 2905, 2759
 997, 2654, 2549, 2559, 2531, 2907, 2802, 2812, 2784
 998, 2539, 2622, 2580, 2582, 2792, 2875, 2833, 2835
 999, 2533, 2518, 2645, 2507, 2786, 2771, 2898, 2760
1000, 2546, 2537, 2506, 2652, 2799, 2790, 2759, 2905
1001, 2545, 2583, 2459, 2543, 2798, 2836, 2712, 2796
1002, 2630, 2434, 2468, 2486, 2883, 2687, 2721, 2739
1003, 2486, 2550, 2536, 2630, 2739, 2803, 2789, 2883
1004, 2661, 2538, 2515, 2655, 2914, 2791, 2768, 2908
1005, 2543, 2447, 2571, 2545, 2796, 2700, 2824, 2798
1006, 2447, 2628, 2539, 2571, 2700, 2881, 2792, 2824
1007, 2574, 2664, 2663, 2548, 2827, 2917, 2916, 2801
1008, 2633, 2535, 2458, 2542, 2886, 2788, 2711, 2795
1009, 2644, 2508, 2481, 2499, 2897, 2761, 2734, 2752
1010, 2584, 2593, 2598, 2649, 2837, 2846, 2851, 2902
1011, 2548, 2514, 2529, 2563, 2801, 2767, 2782, 2816
1012, 2563, 2551, 2574, 2548, 2816, 2804, 2827, 2801
1013, 2566, 2527, 2568, 2587, 2819, 2780, 2821, 2840
1014, 2550, 2564, 2530, 2523, 2803, 2817, 2783, 2776
1015, 2660, 2597, 2656, 2609, 2913, 2850, 2909, 2862
1016, 2558, 2503, 2581, 2597, 2811, 2756, 2834, 2850
1017, 2520, 2647, 2565, 2653, 2773, 2900, 2818, 2906
1018, 2562, 2572, 2521, 2540, 2815, 2825, 2774, 2793
1019, 2567, 2553, 2532, 2552, 2820, 2806, 2785, 2805
1020, 2576, 2560, 2545, 2571, 2829, 2813, 2798, 2824
1021, 2569, 2559, 2586, 2554, 2822, 2812, 2839, 2807
1022, 2570, 2600, 2555, 2663, 2823, 2853, 2808, 2916
1023, 2657, 2528, 2514, 2548, 2910, 2781, 2767, 2801
1024, 2458, 2535, 2634, 2541, 2711, 2788, 2887, 2794
1025, 2575, 2482, 2603, 2561, 2828, 2735, 2856, 2814
1026, 2575, 2602, 2496, 2643, 2828, 2855, 2749, 2896
1027, 2559, 2569, 2652, 2531, 2812, 2822, 2905, 2784
1028, 2655, 2530, 2590, 2661, 2908, 2783, 2843, 2914
1029, 2571, 2539, 2582, 2576, 2824, 2792, 2835, 2829
1030, 2449, 2544, 2561, 2603, 2702, 2797, 2814, 2856
1031, 2589, 2591, 2617, 2604, 2842, 2844, 2870, 2857
1032, 2540, 2646, 2650, 2562, 2793, 2899, 2903, 2815
1033, 2585, 2563, 2529, 2501, 2838, 2816, 2782, 2754
1034, 2653, 2565, 2577, 2589, 2906, 2818, 2830, 2842
1035, 2568, 2527, 2554, 2586, 2821, 2780, 2807, 2839
1036, 2573, 2667, 2590, 2662, 2826, 2920, 2843, 2915
1037, 2552, 2566, 2579, 2567, 2805, 2819, 2832, 2820
1038, 2553, 2567, 2580, 2622, 2806, 2820, 2833, 2875
1039, 2573, 2588, 2549, 2667, 2826, 2841, 2802, 2920
1040, 2663, 2555, 2657, 2548, 2916, 2808, 2910, 2801
1041, 2591, 2589, 2577, 2659, 2844, 2842, 2830, 2912
1042, 2564, 2662, 2590, 2530, 2817, 2915, 2843, 2783
1043, 2551, 2653, 2589, 2574, 2804, 2906, 2842, 2827
1044, 2565, 2572, 2578, 2577, 2818, 2825, 2831, 2830
1045, 2596, 2557, 2555, 2600, 2849, 2810, 2808, 2853
1046, 2621, 2580, 2567, 2579, 2874, 2833, 2820, 2832
1047, 2584, 2560, 2576, 2593, 2837, 2813, 2829, 2846
1048, 2612, 2611, 2599, 2587, 2865, 2864, 2852, 2840
1049, 2566, 2587, 2599, 2579, 2819, 2840, 2852, 2832
1050, 2457, 2622, 2539, 2628, 2710, 2875, 2792, 2881
1051, 2597, 2581, 2498, 2656, 2850, 2834, 2751, 2909
1052, 2606, 2593, 2576, 2582, 2859, 2846, 2829, 2835
1053, 2633, 2583, 2651, 2556, 2886, 2836, 2904, 2809
1054, 2542, 2459, 2583, 2633, 2795, 2712, 2836, 2886
1055, 2650, 2584, 2649, 2562, 2903, 2837, 2902, 2815
1056, 2588, 2586, 2559, 2549, 2841, 2839, 2812, 2802
1057, 2594, 2592, 2588, 2573, 2847, 2845, 2841, 2826
1058, 2612, 2587, 2614, 2615, 2865, 2840, 2867, 2868
1059, 2667, 2549, 2661, 2590, 2920, 2802, 2914, 2843
1060, 2574, 2589, 2604, 2664, 2827, 2842, 2857, 2917
1061, 2568, 2592, 2614, 2587, 2821, 2845, 2867, 2840
1062, 2593, 2606, 2616, 2598, 2846, 2859, 2869, 2851
1063, 2607, 2618, 2615, 2614, 2860, 2871, 2868, 2867
1064, 2607, 2665, 2613, 2618, 2860, 2918, 2866, 2871
1065, 2623, 2619, 2600, 2570, 2876, 2872, 2853, 2823
1066, 2575, 2561, 2596, 2602, 2828, 2814, 2849, 2855
1067, 2558, 2597, 2660, 2564, 2811, 2850, 2913, 2817
1068, 2496, 2602, 2624, 2642, 2749, 2855, 2877, 2895
1069, 2608, 2578, 2649, 2598, 2861, 2831, 2902, 2851
1070, 2666, 2570, 2663, 2664, 2919, 2823, 2916, 2917
1071, 2610, 2623, 2570, 2666, 2863, 2876, 2823, 2919
1072, 2601, 2594, 2573, 2662, 2854, 2847, 2826, 2915
1073, 2602, 2596, 2605, 2624, 2855, 2849, 2858, 2877
1074, 2609, 2605, 2619, 2595, 2862, 2858, 2872, 2848
1075, 2605, 2596, 2600, 2619, 2858, 2849, 2853, 2872
1076, 2606, 2621, 2611, 2616, 2859, 2874, 2864, 2869
1077, 2621, 2606, 2582, 2580, 2874, 2859, 2835, 2833
1078, 2612, 2615, 2658, 2617, 2865, 2868, 2911, 2870
1079, 2594, 2601, 2665, 2607, 2847, 2854, 2918, 2860
1080, 2659, 2608, 2620, 2591, 2912, 2861, 2873, 2844
1081, 2595, 2668, 2660, 2609, 2848, 2921, 2913, 2862
1082, 2625, 2618, 2610, 2666, 2878, 2871, 2863, 2919
1083, 2579, 2599, 2611, 2621, 2832, 2852, 2864, 2874
1084, 2620, 2616, 2611, 2612, 2873, 2869, 2864, 2865
1085, 2613, 2595, 2619, 2623, 2866, 2848, 2872, 2876
1086, 2615, 2618, 2625, 2658, 2868, 2871, 2878, 2911
1087, 2608, 2598, 2616, 2620, 2861, 2851, 2869, 2873
1088, 2618, 2613, 2623, 2610, 2871, 2866, 2876, 2863
1089, 2666, 2664, 2604, 2625, 2919, 2917, 2857, 2878
1090, 2620, 2612, 2617, 2591, 2873, 2865, 2870, 2844
1091, 2656, 2624, 2605, 2609, 2909, 2877, 2858, 2862
1092, 2642, 2624, 2656, 2498, 2895, 2877, 2909, 2751
1093, 2617, 2658, 2625, 2604, 2870, 2911, 2878, 2857
1094, 2629, 2626, 2432, 2450, 2882, 2879, 2685, 2703
1095, 2631, 2627, 2441, 2453, 2884, 2880, 2694, 2706
1096, 2640, 2629, 2450, 2525, 2893, 2882, 2703, 2778
1097, 2632, 2470, 2443, 2455, 2885, 2723, 2696, 2708
1098, 2634, 2535, 2524, 2635, 2887, 2788, 2777, 2888
1099, 2639, 2505, 2522, 2537, 2892, 2758, 2775, 2790
1100, 2643, 2484, 2482, 2575, 2896, 2737, 2735, 2828
1101, 2646, 2540, 2524, 2535, 2899, 2793, 2777, 2788
1102, 2648, 2520, 2653, 2551, 2901, 2773, 2906, 2804
1103, 2651, 2650, 2646, 2556, 2904, 2903, 2899, 2809
1104, 2654, 2538, 2661, 2549, 2907, 2791, 2914, 2802
1105, 2659, 2577, 2578, 2608, 2912, 2830, 2831, 2861
1106, 2668, 2662, 2564, 2660, 2921, 2915, 2817, 2913
1107, 2595, 2613, 2665, 2668, 2848, 2866, 2918, 2921
1108, 2668, 2665, 2601, 2662, 2921, 2918, 2854, 2915
1109,  816, 2683, 2673,  815,  866, 2936, 2926,  865
1110, 2879, 2882, 2743, 2725, 3132, 3135, 2996, 2978
1111, 2669,  822,  823, 2718, 2922,  872,  873, 2971
1112, 2686,  825,  826, 2720, 2939,  875,  876, 2973
1113, 2756, 2803, 2739, 2704, 3009, 3056, 2992, 2957
1114,  830, 2670, 2688,  829,  880, 2923, 2941,  879
1115, 2750, 2733, 2741, 2753, 3003, 2986, 2994, 3006
1116, 2722,  834,  835, 2690, 2975,  884,  885, 2943
1117, 2717, 2856, 2735, 2690, 2970, 3109, 2988, 2943
1118, 2671,  838,  839, 2715, 2924,  888,  889, 2968
1119, 2692,  841,  842, 2724, 2945,  891,  892, 2977
1120, 2838, 2742, 2766, 2771, 3091, 2995, 3019, 3024
1121,  847, 2674, 2694,  846,  897, 2927, 2947,  896
1122, 2674,  847,  848, 2695, 2927,  897,  898, 2948
1123, 2680,  810,  811, 2713, 2933,  860,  861, 2966
1124, 2681,  812,  813, 2714, 2934,  862,  863, 2967
1125,  815, 2673, 2682,  814,  865, 2926, 2935,  864
1126, 2716,  817,  818, 2684, 2969,  867,  868, 2937
1127,  851, 2675, 2696,  850,  901, 2928, 2949,  900
1128, 2690, 2735, 2737, 2722, 2943, 2988, 2990, 2975
1129, 2675, 2707, 2708, 2696, 2928, 2960, 2961, 2949
1130, 2740, 2695, 2723, 2885, 2993, 2948, 2976, 3138
1131, 2794, 2676, 2698, 2711, 3047, 2929, 2951, 2964
1132,  808, 2679, 2678,  807,  858, 2932, 2931,  857
1133, 2739, 2721, 2688, 2704, 2992, 2974, 2941, 2957
1134, 2713,  811,  812, 2681, 2966,  861,  862, 2934
1135, 2682, 2701, 2738, 2714, 2935, 2954, 2991, 2967
1136, 2713, 2748, 2710, 2680, 2966, 3001, 2963, 2933
1137, 2684,  818,  819, 2725, 2937,  868,  869, 2978
1138,  820, 2879, 2725,  819,  870, 3132, 2978,  869
1139,  822, 2669, 2685,  821,  872, 2922, 2938,  871
1140, 2718,  823,  824, 2729, 2971,  873,  874, 2982
1141, 2720,  826,  827, 2687, 2973,  876,  877, 2940
1142, 2670,  830,  831, 2719, 2923,  880,  881, 2972
1143, 2689,  833,  834, 2722, 2942,  883,  884, 2975
1144, 2814, 2797, 2810, 2849, 3067, 3050, 3063, 3102
1145,  838, 2671, 2691,  837,  888, 2924, 2944,  887
1146, 2776, 2783, 2908, 2753, 3029, 3036, 3161, 3006
1147, 2724,  842,  843, 2693, 2977,  892,  893, 2946
1148,  845, 2880, 2727,  844,  895, 3133, 2980,  894
1149, 2880, 2884, 2891, 2727, 3133, 3137, 3144, 2980
1150, 2706, 2694, 2674, 2705, 2959, 2947, 2927, 2958
1151, 2675,  851,  852, 2697, 2928,  901,  902, 2950
1152, 2697,  852,  853, 2676, 2950,  902,  903, 2929
1153, 2698,  854,  855, 2677, 2951,  904,  905, 2930
1154, 2888, 2708, 2707, 2889, 3141, 2961, 2960, 3142
1155, 2700, 2796, 2678, 2679, 2953, 3049, 2931, 2932
1156, 2719,  831,  832, 2728, 2972,  881,  882, 2981
1157, 2715,  839,  840, 2726, 2968,  889,  890, 2979
1158,  809, 2672, 2679,  808,  859, 2925, 2932,  858
1159, 2672,  809,  810, 2680, 2925,  859,  860, 2933
1160, 2683,  816,  817, 2716, 2936,  866,  867, 2969
1161, 2709, 2673, 2683, 2747, 2962, 2926, 2936, 3000
1162, 2695,  848,  849, 2723, 2948,  898,  899, 2976
1163, 2723,  849,  850, 2696, 2976,  899,  900, 2949
1164, 2676,  853,  854, 2698, 2929,  903,  904, 2951
1165, 2889, 2697, 2676, 2794, 3142, 2950, 2929, 3047
1166, 2677,  855,  856, 2699, 2930,  905,  906, 2952
1167, 2711, 2698, 2677, 2795, 2964, 2951, 2930, 3048
1168, 2699,  856,  807, 2678, 2952,  906,  857, 2931
1169, 2795, 2677, 2699, 2712, 3048, 2930, 2952, 2965
1170, 2679, 2672, 2881, 2700, 2932, 2925, 3134, 2953
1171, 2748, 2713, 2681, 2769, 3001, 2966, 2934, 3022
1172, 2714,  813,  814, 2682, 2967,  863,  864, 2935
1173, 2701, 2682, 2673, 2709, 2954, 2935, 2926, 2962
1174, 2758, 2716, 2684, 2775, 3011, 2969, 2937, 3028
1175, 2755, 2738, 2701, 2731, 3008, 2991, 2954, 2984
1176, 2703, 2685, 2669, 2762, 2956, 2938, 2922, 3015
1177, 2780, 2819, 2805, 2770, 3033, 3072, 3058, 3023
1178, 2733, 2718, 2729, 2741, 2986, 2971, 2982, 2994
1179, 2687,  827,  828, 2721, 2940,  877,  878, 2974
1180, 2721,  828,  829, 2688, 2974,  878,  879, 2941
1181, 2719, 2732, 2763, 2670, 2972, 2985, 3016, 2923
1182, 2732, 2751, 2834, 2763, 2985, 3004, 3087, 3016
1183, 2732, 2719, 2728, 2746, 2985, 2972, 2981, 2999
1184, 2690,  835,  836, 2717, 2943,  885,  886, 2970
1185, 2717,  836,  837, 2691, 2970,  886,  887, 2944
1186, 2856, 2717, 2691, 2702, 3109, 2970, 2944, 2955
1187, 2731, 2701, 2709, 2764, 2984, 2954, 2962, 3017
1188, 2734, 2715, 2726, 2744, 2987, 2968, 2979, 2997
1189, 2693,  843,  844, 2727, 2946,  893,  894, 2980
1190, 2890, 2730, 2773, 2901, 3143, 2983, 3026, 3154
1191, 2885, 2708, 2757, 2765, 3138, 2961, 3010, 3018
1192, 2675, 2697, 2889, 2707, 2928, 2950, 3142, 2960
1193, 2672, 2680, 2710, 2881, 2925, 2933, 2963, 3134
1194, 2744, 2754, 2752, 2734, 2997, 3007, 3005, 2987
1195, 2747, 2683, 2716, 2758, 3000, 2936, 2969, 3011
1196, 2702, 2691, 2671, 2761, 2955, 2944, 2924, 3014
1197, 2715, 2734, 2761, 2671, 2968, 2987, 3014, 2924
1198, 2718, 2733, 2762, 2669, 2971, 2986, 3015, 2922
1199, 2789, 2720, 2687, 2883, 3042, 2973, 2940, 3136
1200, 2704, 2688, 2670, 2763, 2957, 2941, 2923, 3016
1201, 2746, 2895, 2751, 2732, 2999, 3148, 3004, 2985
1202, 2705, 2674, 2695, 2740, 2958, 2927, 2948, 2993
1203, 2740, 2885, 2765, 2730, 2993, 3138, 3018, 2983
1204, 2766, 2724, 2693, 2779, 3019, 2977, 2946, 3032
1205, 2765, 2757, 2774, 2900, 3018, 3010, 3027, 3153
1206, 2800, 2747, 2758, 2892, 3053, 3000, 3011, 3145
1207, 2738, 2755, 2785, 2769, 2991, 3008, 3038, 3022
1208, 2748, 2806, 2875, 2710, 3001, 3059, 3128, 2963
1209, 2712, 2699, 2678, 2796, 2965, 2952, 2931, 3049
1210, 2904, 2813, 2837, 2903, 3157, 3066, 3090, 3156
1211, 2726,  840,  841, 2692, 2979,  890,  891, 2945
1212, 2729,  824,  825, 2686, 2982,  874,  875, 2939
1213, 2728,  832,  833, 2689, 2981,  882,  883, 2942
1214, 2879,  820,  821, 2685, 3132,  870,  871, 2938
1215, 2744, 2726, 2692, 2742, 2997, 2979, 2945, 2995
1216, 2880,  845,  846, 2694, 3133,  895,  896, 2947
1217, 2746, 2728, 2689, 2745, 2999, 2981, 2942, 2998
1218, 2741, 2729, 2686, 2736, 2994, 2982, 2939, 2989
1219, 2764, 2709, 2747, 2800, 3017, 2962, 3000, 3053
1220, 2894, 2762, 2733, 2750, 3147, 3015, 2986, 3003
1221, 2762, 2894, 2778, 2703, 3015, 3147, 3031, 2956
1222, 2736, 2686, 2720, 2789, 2989, 2939, 2973, 3042
1223, 2761, 2897, 2797, 2702, 3014, 3150, 3050, 2955
1224, 2742, 2692, 2724, 2766, 2995, 2945, 2977, 3019
1225, 2897, 2781, 2810, 2797, 3150, 3034, 3063, 3050
1226, 2776, 2736, 2789, 2803, 3029, 2989, 3042, 3056
1227, 2763, 2834, 2756, 2704, 3016, 3087, 3009, 2957
1228, 2737, 2896, 2749, 2745, 2990, 3149, 3002, 2998
1229, 2722, 2737, 2745, 2689, 2975, 2990, 2998, 2942
1230, 2681, 2714, 2738, 2769, 2934, 2967, 2991, 3022
1231, 2898, 2779, 2891, 2760, 3151, 3032, 3144, 3013
1232, 2752, 2767, 2781, 2897, 3005, 3020, 3034, 3150
1233, 2725, 2743, 2775, 2684, 2978, 2996, 3028, 2937
1234, 2890, 2760, 2706, 2705, 3143, 3013, 2959, 2958
1235, 2745, 2749, 2895, 2746, 2998, 3002, 3148, 2999
1236, 2731, 2772, 2770, 2755, 2984, 3025, 3023, 3008
1237, 2780, 2770, 2772, 2807, 3033, 3023, 3025, 3060
1238, 2753, 2741, 2736, 2776, 3006, 2994, 2989, 3029
1239, 2845, 2821, 2839, 2841, 3098, 3074, 3092, 3094
1240, 2754, 2744, 2742, 2838, 3007, 2997, 2995, 3091
1241, 2752, 2754, 2782, 2767, 3005, 3007, 3035, 3020
1242, 2785, 2755, 2770, 2805, 3038, 3008, 3023, 3058
1243, 2910, 2808, 2810, 2781, 3163, 3061, 3063, 3034
1244, 2794, 2887, 2888, 2889, 3047, 3140, 3141, 3142
1245, 2790, 2799, 2800, 2892, 3043, 3052, 3053, 3145
1246, 2822, 2787, 2799, 2905, 3075, 3040, 3052, 3158
1247, 2759, 2743, 2882, 2893, 3012, 2996, 3135, 3146
1248, 2891, 2884, 2706, 2760, 3144, 3137, 2959, 3013
1249, 2787, 2764, 2800, 2799, 3040, 3017, 3053, 3052
1250, 2705, 2740, 2730, 2890, 2958, 2993, 2983, 3143
1251, 2771, 2766, 2779, 2898, 3024, 3019, 3032, 3151
1252, 2838, 2771, 2786, 2816, 3091, 3024, 3039, 3069
1253, 2847, 2860, 2867, 2845, 3100, 3113, 3120, 3098
1254, 2907, 2778, 2894, 2791, 3160, 3031, 3147, 3044
1255, 2768, 2750, 2753, 2908, 3021, 3003, 3006, 3161
1256, 2769, 2785, 2806, 2748, 3022, 3038, 3059, 3001
1257, 2772, 2731, 2764, 2787, 3025, 2984, 3017, 3040
1258, 2901, 2786, 2760, 2890, 3154, 3039, 3013, 3143
1259, 2807, 2772, 2787, 2822, 3060, 3025, 3040, 3075
1260, 2900, 2774, 2825, 2818, 3153, 3027, 3078, 3071
1261, 2900, 2773, 2730, 2765, 3153, 3026, 2983, 3018
1262, 2757, 2777, 2793, 2774, 3010, 3030, 3046, 3027
1263, 2809, 2899, 2788, 2886, 3062, 3152, 3041, 3139
1264, 2743, 2759, 2790, 2775, 2996, 3012, 3043, 3028
1265, 2777, 2757, 2708, 2888, 3030, 3010, 2961, 3141
1266, 2904, 2836, 2798, 2813, 3157, 3089, 3051, 3066
1267, 2750, 2768, 2791, 2894, 3003, 3021, 3044, 3147
1268, 2893, 2778, 2907, 2784, 3146, 3031, 3160, 3037
1269, 2779, 2693, 2727, 2891, 3032, 2946, 2980, 3144
1270, 2825, 2815, 2902, 2831, 3078, 3068, 3155, 3084
1271, 2804, 2816, 2786, 2901, 3057, 3069, 3039, 3154
1272, 2756, 2811, 2817, 2803, 3009, 3064, 3070, 3056
1273, 2893, 2784, 2905, 2759, 3146, 3037, 3158, 3012
1274, 2907, 2802, 2812, 2784, 3160, 3055, 3065, 3037
1275, 2792, 2875, 2833, 2835, 3045, 3128, 3086, 3088
1276, 2786, 2771, 2898, 2760, 3039, 3024, 3151, 3013
1277, 2799, 2790, 2759, 2905, 3052, 3043, 3012, 3158
1278, 2798, 2836, 2712, 2796, 3051, 3089, 2965, 3049
1279, 2883, 2687, 2721, 2739, 3136, 2940, 2974, 2992
1280, 2739, 2803, 2789, 2883, 2992, 3056, 3042, 3136
1281, 2914, 2791, 2768, 2908, 3167, 3044, 3021, 3161
1282, 2796, 2700, 2824, 2798, 3049, 2953, 3077, 3051
1283, 2700, 2881, 2792, 2824, 2953, 3134, 3045, 3077
1284, 2827, 2917, 2916, 2801, 3080, 3170, 3169, 3054
1285, 2886, 2788, 2711, 2795, 3139, 3041, 2964, 3048
1286, 2897, 2761, 2734, 2752, 3150, 3014, 2987, 3005
1287, 2837, 2846, 2851, 2902, 3090, 3099, 3104, 3155
1288, 2801, 2767, 2782, 2816, 3054, 3020, 3035, 3069
1289, 2816, 2804, 2827, 2801, 3069, 3057, 3080, 3054
1290, 2819, 2780, 2821, 2840, 3072, 3033, 3074, 3093
1291, 2803, 2817, 2783, 2776, 3056, 3070, 3036, 3029
1292, 2913, 2850, 2909, 2862, 3166, 3103, 3162, 3115
1293, 2811, 2756, 2834, 2850, 3064, 3009, 3087, 3103
1294, 2773, 2900, 2818, 2906, 3026, 3153, 3071, 3159
1295, 2815, 2825, 2774, 2793, 3068, 3078, 3027, 3046
1296, 2820, 2806, 2785, 2805, 3073, 3059, 3038, 3058
1297, 2829, 2813, 2798, 2824, 3082, 3066, 3051, 3077
1298, 2822, 2812, 2839, 2807, 3075, 3065, 3092, 3060
1299, 2823, 2853, 2808, 2916, 3076, 3106, 3061, 3169
1300, 2910, 2781, 2767, 2801, 3163, 3034, 3020, 3054
1301, 2711, 2788, 2887, 2794, 2964, 3041, 3140, 3047
1302, 2828, 2735, 2856, 2814, 3081, 2988, 3109, 3067
1303, 2828, 2855, 2749, 2896, 3081, 3108, 3002, 3149
1304, 2812, 2822, 2905, 2784, 3065, 3075, 3158, 3037
1305, 2908, 2783, 2843, 2914, 3161, 3036, 3096, 3167
1306, 2824, 2792, 2835, 2829, 3077, 3045, 3088, 3082
1307, 2702, 2797, 2814, 2856, 2955, 3050, 3067, 3109
1308, 2842, 2844, 2870, 2857, 3095, 3097, 3123, 3110
1309, 2793, 2899, 2903, 2815, 3046, 3152, 3156, 3068
1310, 2838, 2816, 2782, 2754, 3091, 3069, 3035, 3007
1311, 2906, 2818, 2830, 2842, 3159, 3071, 3083, 3095
1312, 2821, 2780, 2807, 2839, 3074, 3033, 3060, 3092
1313, 2826, 2920, 2843, 2915, 3079, 3173, 3096, 3168
1314, 2805, 2819, 2832, 2820, 3058, 3072, 3085, 3073
1315, 2806, 2820, 2833, 2875, 3059, 3073, 3086, 3128
1316, 2826, 2841, 2802, 2920, 3079, 3094, 3055, 3173
1317, 2916, 2808, 2910, 2801, 3169, 3061, 3163, 3054
1318, 2844, 2842, 2830, 2912, 3097, 3095, 3083, 3165
1319, 2817, 2915, 2843, 2783, 3070, 3168, 3096, 3036
1320, 2804, 2906, 2842, 2827, 3057, 3159, 3095, 3080
1321, 2818, 2825, 2831, 2830, 3071, 3078, 3084, 3083
1322, 2849, 2810, 2808, 2853, 3102, 3063, 3061, 3106
1323, 2874, 2833, 2820, 2832, 3127, 3086, 3073, 3085
1324, 2837, 2813, 2829, 2846, 3090, 3066, 3082, 3099
1325, 2865, 2864, 2852, 2840, 3118, 3117, 3105, 3093
1326, 2819, 2840, 2852, 2832, 3072, 3093, 3105, 3085
1327, 2710, 2875, 2792, 2881, 2963, 3128, 3045, 3134
1328, 2850, 2834, 2751, 2909, 3103, 3087, 3004, 3162
1329, 2859, 2846, 2829, 2835, 3112, 3099, 3082, 3088
1330, 2886, 2836, 2904, 2809, 3139, 3089, 3157, 3062
1331, 2795, 2712, 2836, 2886, 3048, 2965, 3089, 3139
1332, 2903, 2837, 2902, 2815, 3156, 3090, 3155, 3068
1333, 2841, 2839, 2812, 2802, 3094, 3092, 3065, 3055
1334, 2847, 2845, 2841, 2826, 3100, 3098, 3094, 3079
1335, 2865, 2840, 2867, 2868, 3118, 3093, 3120, 3121
1336, 2920, 2802, 2914, 2843, 3173, 3055, 3167, 3096
1337, 2827, 2842, 2857, 2917, 3080, 3095, 3110, 3170
1338, 2821, 2845, 2867, 2840, 3074, 3098, 3120, 3093
1339, 2846, 2859, 2869, 2851, 3099, 3112, 3122, 3104
1340, 2860, 2871, 2868, 2867, 3113, 3124, 3121, 3120
1341, 2860, 2918, 2866, 2871, 3113, 3171, 3119, 3124
1342, 2876, 2872, 2853, 2823, 3129, 3125, 3106, 3076
1343, 2828, 2814, 2849, 2855, 3081, 3067, 3102, 3108
1344, 2811, 2850, 2913, 2817, 3064, 3103, 3166, 3070
1345, 2749, 2855, 2877, 2895, 3002, 3108, 3130, 3148
1346, 2861, 2831, 2902, 2851, 3114, 3084, 3155, 3104
1347, 2919, 2823, 2916, 2917, 3172, 3076, 3169, 3170
1348, 2863, 2876, 2823, 2919, 3116, 3129, 3076, 3172
1349, 2854, 2847, 2826, 2915, 3107, 3100, 3079, 3168
1350, 2855, 2849, 2858, 2877, 3108, 3102, 3111, 3130
1351, 2862, 2858, 2872, 2848, 3115, 3111, 3125, 3101
1352, 2858, 2849, 2853, 2872, 3111, 3102, 3106, 3125
1353, 2859, 2874, 2864, 2869, 3112, 3127, 3117, 3122
1354, 2874, 2859, 2835, 2833, 3127, 3112, 3088, 3086
1355, 2865, 2868, 2911, 2870, 3118, 3121, 3164, 3123
1356, 2847, 2854, 2918, 2860, 3100, 3107, 3171, 3113
1357, 2912, 2861, 2873, 2844, 3165, 3114, 3126, 3097
1358, 2848, 2921, 2913, 2862, 3101, 3174, 3166, 3115
1359, 2878, 2871, 2863, 2919, 3131, 3124, 3116, 3172
1360, 2832, 2852, 2864, 2874, 3085, 3105, 3117, 3127
1361, 2873, 2869, 2864, 2865, 3126, 3122, 3117, 3118
1362, 2866, 2848, 2872, 2876, 3119, 3101, 3125, 3129
1363, 2868, 2871, 2878, 2911, 3121, 3124, 3131, 3164
1364, 2861, 2851, 2869, 2873, 3114, 3104, 3122, 3126
1365, 2871, 2866, 2876, 2863, 3124, 3119, 3129, 3116
1366, 2919, 2917, 2857, 2878, 3172, 3170, 3110, 3131
1367, 2873, 2865, 2870, 2844, 3126, 3118, 3123, 3097
1368, 2909, 2877, 2858, 2862, 3162, 3130, 3111, 3115
1369, 2895, 2877, 2909, 2751, 3148, 3130, 3162, 3004
1370, 2870, 2911, 2878, 2857, 3123, 3164, 3131, 3110
1371, 2882, 2879, 2685, 2703, 3135, 3132, 2938, 2956
1372, 2884, 2880, 2694, 2706, 3137, 3133, 2947, 2959
1373, 2893, 2882, 2703, 2778, 3146, 3135, 2956, 3031
1374, 2885, 2723, 2696, 2708, 3138, 2976, 2949, 2961
1375, 2887, 2788, 2777, 2888, 3140, 3041, 3030, 3141
1376, 2892, 2758, 2775, 2790, 3145, 3011, 3028, 3043
1377, 2896, 2737, 2735, 2828, 3149, 2990, 2988, 3081
1378, 2899, 2793, 2777, 2788, 3152, 3046, 3030, 3041
1379, 2901, 2773, 2906, 2804, 3154, 3026, 3159, 3057
1380, 2904, 2903, 2899, 2809, 3157, 3156, 3152, 3062
1381, 2907, 2791, 2914, 2802, 3160, 3044, 3167, 3055
1382, 2912, 2830, 2831, 2861, 3165, 3083, 3084, 3114
1383, 2921, 2915, 2817, 2913, 3174, 3168, 3070, 3166
1384, 2848, 2866, 2918, 2921, 3101, 3119, 3171, 3174
1385, 2921, 2918, 2854, 2915, 3174, 3171, 3107, 3168
1386,  866, 2936, 2926,  865,  916, 3189, 3179,  915
1387, 3132, 3135, 2996, 2978, 3385, 3388, 3249, 3231
1388, 2922,  872,  873, 2971, 3175,  922,  923, 3224
1389, 2939,  875,  876, 2973, 3192,  925,  926, 3226
1390, 3009, 3056, 2992, 2957, 3262, 3309, 3245, 3210
1391,  880, 2923, 2941,  879,  930, 3176, 3194,  929
1392, 3003, 2986, 2994, 3006, 3256, 3239, 3247, 3259
1393, 2975,  884,  885, 2943, 3228,  934,  935, 3196
1394, 2970, 3109, 2988, 2943, 3223, 3362, 3241, 3196
1395, 2924,  888,  889, 2968, 3177,  938,  939, 3221
1396, 2945,  891,  892, 2977, 3198,  941,  942, 3230
1397, 3091, 2995, 3019, 3024, 3344, 3248, 3272, 3277
1398,  897, 2927, 2947,  896,  947, 3180, 3200,  946
1399, 2927,  897,  898, 2948, 3180,  947,  948, 3201
1400, 2933,  860,  861, 2966, 3186,  910,  911, 3219
1401, 2934,  862,  863, 2967, 3187,  912,  913, 3220
1402,  865, 2926, 2935,  864,  915, 3179, 3188,  914
1403, 2969,  867,  868, 2937, 3222,  917,  918, 3190
1404,  901, 2928, 2949,  900,  951, 3181, 3202,  950
1405, 2943, 2988, 2990, 2975, 3196, 3241, 3243, 3228
1406, 2928, 2960, 2961, 2949, 3181, 3213, 3214, 3202
1407, 2993, 2948, 2976, 3138, 3246, 3201, 3229, 3391
1408, 3047, 2929, 2951, 2964, 3300, 3182, 3204, 3217
1409,  858, 2932, 2931,  857,  908, 3185, 3184,  907
1410, 2992, 2974, 2941, 2957, 3245, 3227, 3194, 3210
1411, 2966,  861,  862, 2934, 3219,  911,  912, 3187
1412, 2935, 2954, 2991, 2967, 3188, 3207, 3244, 3220
1413, 2966, 3001, 2963, 2933, 3219, 3254, 3216, 3186
1414, 2937,  868,  869, 2978, 3190,  918,  919, 3231
1415,  870, 3132, 2978,  869,  920, 3385, 3231,  919
1416,  872, 2922, 2938,  871,  922, 3175, 3191,  921
1417, 2971,  873,  874, 2982, 3224,  923,  924, 3235
1418, 2973,  876,  877, 2940, 3226,  926,  927, 3193
1419, 2923,  880,  881, 2972, 3176,  930,  931, 3225
1420, 2942,  883,  884, 2975, 3195,  933,  934, 3228
1421, 3067, 3050, 3063, 3102, 3320, 3303, 3316, 3355
1422,  888, 2924, 2944,  887,  938, 3177, 3197,  937
1423, 3029, 3036, 3161, 3006, 3282, 3289, 3414, 3259
1424, 2977,  892,  893, 2946, 3230,  942,  943, 3199
1425,  895, 3133, 2980,  894,  945, 3386, 3233,  944
1426, 3133, 3137, 3144, 2980, 3386, 3390, 3397, 3233
1427, 2959, 2947, 2927, 2958, 3212, 3200, 3180, 3211
1428, 2928,  901,  902, 2950, 3181,  951,  952, 3203
1429, 2950,  902,  903, 2929, 3203,  952,  953, 3182
1430, 2951,  904,  905, 2930, 3204,  954,  955, 3183
1431, 3141, 2961, 2960, 3142, 3394, 3214, 3213, 3395
1432, 2953, 3049, 2931, 2932, 3206, 3302, 3184, 3185
1433, 2972,  881,  882, 2981, 3225,  931,  932, 3234
1434, 2968,  889,  890, 2979, 3221,  939,  940, 3232
1435,  859, 2925, 2932,  858,  909, 3178, 3185,  908
1436, 2925,  859,  860, 2933, 3178,  909,  910, 3186
1437, 2936,  866,  867, 2969, 3189,  916,  917, 3222
1438, 2962, 2926, 2936, 3000, 3215, 3179, 3189, 3253
1439, 2948,  898,  899, 2976, 3201,  948,  949, 3229
1440, 2976,  899,  900, 2949, 3229,  949,  950, 3202
1441, 2929,  903,  904, 2951, 3182,  953,  954, 3204
1442, 3142, 2950, 2929, 3047, 3395, 3203, 3182, 3300
1443, 2930,  905,  906, 2952, 3183,  955,  956, 3205
1444, 2964, 2951, 2930, 3048, 3217, 3204, 3183, 3301
1445, 2952,  906,  857, 2931, 3205,  956,  907, 3184
1446, 3048, 2930, 2952, 2965, 3301, 3183, 3205, 3218
1447, 2932, 2925, 3134, 2953, 3185, 3178, 3387, 3206
1448, 3001, 2966, 2934, 3022, 3254, 3219, 3187, 3275
1449, 2967,  863,  864, 2935, 3220,  913,  914, 3188
1450, 2954, 2935, 2926, 2962, 3207, 3188, 3179, 3215
1451, 3011, 2969, 2937, 3028, 3264, 3222, 3190, 3281
1452, 3008, 2991, 2954, 2984, 3261, 3244, 3207, 3237
1453, 2956, 2938, 2922, 3015, 3209, 3191, 3175, 3268
1454, 3033, 3072, 3058, 3023, 3286, 3325, 3311, 3276
1455, 2986, 2971, 2982, 2994, 3239, 3224, 3235, 3247
1456, 2940,  877,  878, 2974, 3193,  927,  928, 3227
1457, 2974,  878,  879, 2941, 3227,  928,  929, 3194
1458, 2972, 2985, 3016, 2923, 3225, 3238, 3269, 3176
1459, 2985, 3004, 3087, 3016, 3238, 3257, 3340, 3269
1460, 2985, 2972, 2981, 2999, 3238, 3225, 3234, 3252
1461, 2943,  885,  886, 2970, 3196,  935,  936, 3223
1462, 2970,  886,  887, 2944, 3223,  936,  937, 3197
1463, 3109, 2970, 2944, 2955, 3362, 3223, 3197, 3208
1464, 2984, 2954, 2962, 3017, 3237, 3207, 3215, 3270
1465, 2987, 2968, 2979, 2997, 3240, 3221, 3232, 3250
1466, 2946,  893,  894, 2980, 3199,  943,  944, 3233
1467, 3143, 2983, 3026, 3154, 3396, 3236, 3279, 3407
1468, 3138, 2961, 3010, 3018, 3391, 3214, 3263, 3271
1469, 2928, 2950, 3142, 2960, 3181, 3203, 3395, 3213
1470, 2925, 2933, 2963, 3134, 3178, 3186, 3216, 3387
1471, 2997, 3007, 3005, 2987, 3250, 3260, 3258, 3240
1472, 3000, 2936, 2969, 3011, 3253, 3189, 3222, 3264
1473, 2955, 2944, 2924, 3014, 3208, 3197, 3177, 3267
1474, 2968, 2987, 3014, 2924, 3221, 3240, 3267, 3177
1475, 2971, 2986, 3015, 2922, 3224, 3239, 3268, 3175
1476, 3042, 2973, 2940, 3136, 3295, 3226, 3193, 3389
1477, 2957, 2941, 2923, 3016, 3210, 3194, 3176, 3269
1478, 2999, 3148, 3004, 2985, 3252, 3401, 3257, 3238
1479, 2958, 2927, 2948, 2993, 3211, 3180, 3201, 3246
1480, 2993, 3138, 3018, 2983, 3246, 3391, 3271, 3236
1481, 3019, 2977, 2946, 3032, 3272, 3230, 3199, 3285
1482, 3018, 3010, 3027, 3153, 3271, 3263, 3280, 3406
1483, 3053, 3000, 3011, 3145, 3306, 3253, 3264, 3398
1484, 2991, 3008, 3038, 3022, 3244, 3261, 3291, 3275
1485, 3001, 3059, 3128, 2963, 3254, 3312, 3381, 3216
1486, 2965, 2952, 2931, 3049, 3218, 3205, 3184, 3302
1487, 3157, 3066, 3090, 3156, 3410, 3319, 3343, 3409
1488, 2979,  890,  891, 2945, 3232,  940,  941, 3198
1489, 2982,  874,  875, 2939, 3235,  924,  925, 3192
1490, 2981,  882,  883, 2942, 3234,  932,  933, 3195
1491, 3132,  870,  871, 2938, 3385,  920,  921, 3191
1492, 2997, 2979, 2945, 2995, 3250, 3232, 3198, 3248
1493, 3133,  895,  896, 2947, 3386,  945,  946, 3200
1494, 2999, 2981, 2942, 2998, 3252, 3234, 3195, 3251
1495, 2994, 2982, 2939, 2989, 3247, 3235, 3192, 3242
1496, 3017, 2962, 3000, 3053, 3270, 3215, 3253, 3306
1497, 3147, 3015, 2986, 3003, 3400, 3268, 3239, 3256
1498, 3015, 3147, 3031, 2956, 3268, 3400, 3284, 3209
1499, 2989, 2939, 2973, 3042, 3242, 3192, 3226, 3295
1500, 3014, 3150, 3050, 2955, 3267, 3403, 3303, 3208
1501, 2995, 2945, 2977, 3019, 3248, 3198, 3230, 3272
1502, 3150, 3034, 3063, 3050, 3403, 3287, 3316, 3303
1503, 3029, 2989, 3042, 3056, 3282, 3242, 3295, 3309
1504, 3016, 3087, 3009, 2957, 3269, 3340, 3262, 3210
1505, 2990, 3149, 3002, 2998, 3243, 3402, 3255, 3251
1506, 2975, 2990, 2998, 2942, 3228, 3243, 3251, 3195
1507, 2934, 2967, 2991, 3022, 3187, 3220, 3244, 3275
1508, 3151, 3032, 3144, 3013, 3404, 3285, 3397, 3266
1509, 3005, 3020, 3034, 3150, 3258, 3273, 3287, 3403
1510, 2978, 2996, 3028, 2937, 3231, 3249, 3281, 3190
1511, 3143, 3013, 2959, 2958, 3396, 3266, 3212, 3211
1512, 2998, 3002, 3148, 2999, 3251, 3255, 3401, 3252
1513, 2984, 3025, 3023, 3008, 3237, 3278, 3276, 3261
1514, 3033, 3023, 3025, 3060, 3286, 3276, 3278, 3313
1515, 3006, 2994, 2989, 3029, 3259, 3247, 3242, 3282
1516, 3098, 3074, 3092, 3094, 3351, 3327, 3345, 3347
1517, 3007, 2997, 2995, 3091, 3260, 3250, 3248, 3344
1518, 3005, 3007, 3035, 3020, 3258, 3260, 3288, 3273
1519, 3038, 3008, 3023, 3058, 3291, 3261, 3276, 3311
1520, 3163, 3061, 3063, 3034, 3416, 3314, 3316, 3287
1521, 3047, 3140, 3141, 3142, 3300, 3393, 3394, 3395
1522, 3043, 3052, 3053, 3145, 3296, 3305, 3306, 3398
1523, 3075, 3040, 3052, 3158, 3328, 3293, 3305, 3411
1524, 3012, 2996, 3135, 3146, 3265, 3249, 3388, 3399
1525, 3144, 3137, 2959, 3013, 3397, 3390, 3212, 3266
1526, 3040, 3017, 3053, 3052, 3293, 3270, 3306, 3305
1527, 2958, 2993, 2983, 3143, 3211, 3246, 3236, 3396
1528, 3024, 3019, 3032, 3151, 3277, 3272, 3285, 3404
1529, 3091, 3024, 3039, 3069, 3344, 3277, 3292, 3322
1530, 3100, 3113, 3120, 3098, 3353, 3366, 3373, 3351
1531, 3160, 3031, 3147, 3044, 3413, 3284, 3400, 3297
1532, 3021, 3003, 3006, 3161, 3274, 3256, 3259, 3414
1533, 3022, 3038, 3059, 3001, 3275, 3291, 3312, 3254
1534, 3025, 2984, 3017, 3040, 3278, 3237, 3270, 3293
1535, 3154, 3039, 3013, 3143, 3407, 3292, 3266, 3396
1536, 3060, 3025, 3040, 3075, 3313, 3278, 3293, 3328
1537, 3153, 3027, 3078, 3071, 3406, 3280, 3331, 3324
1538, 3153, 3026, 2983, 3018, 3406, 3279, 3236, 3271
1539, 3010, 3030, 3046, 3027, 3263, 3283, 3299, 3280
1540, 3062, 3152, 3041, 3139, 3315, 3405, 3294, 3392
1541, 2996, 3012, 3043, 3028, 3249, 3265, 3296, 3281
1542, 3030, 3010, 2961, 3141, 3283, 3263, 3214, 3394
1543, 3157, 3089, 3051, 3066, 3410, 3342, 3304, 3319
1544, 3003, 3021, 3044, 3147, 3256, 3274, 3297, 3400
1545, 3146, 3031, 3160, 3037, 3399, 3284, 3413, 3290
1546, 3032, 2946, 2980, 3144, 3285, 3199, 3233, 3397
1547, 3078, 3068, 3155, 3084, 3331, 3321, 3408, 3337
1548, 3057, 3069, 3039, 3154, 3310, 3322, 3292, 3407
1549, 3009, 3064, 3070, 3056, 3262, 3317, 3323, 3309
1550, 3146, 3037, 3158, 3012, 3399, 3290, 3411, 3265
1551, 3160, 3055, 3065, 3037, 3413, 3308, 3318, 3290
1552, 3045, 3128, 3086, 3088, 3298, 3381, 3339, 3341
1553, 3039, 3024, 3151, 3013, 3292, 3277, 3404, 3266
1554, 3052, 3043, 3012, 3158, 3305, 3296, 3265, 3411
1555, 3051, 3089, 2965, 3049, 3304, 3342, 3218, 3302
1556, 3136, 2940, 2974, 2992, 3389, 3193, 3227, 3245
1557, 2992, 3056, 3042, 3136, 3245, 3309, 3295, 3389
1558, 3167, 3044, 3021, 3161, 3420, 3297, 3274, 3414
1559, 3049, 2953, 3077, 3051, 3302, 3206, 3330, 3304
1560, 2953, 3134, 3045, 3077, 3206, 3387, 3298, 3330
1561, 3080, 3170, 3169, 3054, 3333, 3423, 3422, 3307
1562, 3139, 3041, 2964, 3048, 3392, 3294, 3217, 3301
1563, 3150, 3014, 2987, 3005, 3403, 3267, 3240, 3258
1564, 3090, 3099, 3104, 3155, 3343, 3352, 3357, 3408
1565, 3054, 3020, 3035, 3069, 3307, 3273, 3288, 3322
1566, 3069, 3057, 3080, 3054, 3322, 3310, 3333, 3307
1567, 3072, 3033, 3074, 3093, 3325, 3286, 3327, 3346
1568, 3056, 3070, 3036, 3029, 3309, 3323, 3289, 3282
1569, 3166, 3103, 3162, 3115, 3419, 3356, 3415, 3368
1570, 3064, 3009, 3087, 3103, 3317, 3262, 3340, 3356
1571, 3026, 3153, 3071, 3159, 3279, 3406, 3324, 3412
1572, 3068, 3078, 3027, 3046, 3321, 3331, 3280, 3299
1573, 3073, 3059, 3038, 3058, 3326, 3312, 3291, 3311
1574, 3082, 3066, 3051, 3077, 3335, 3319, 3304, 3330
1575, 3075, 3065, 3092, 3060, 3328, 3318, 3345, 3313
1576, 3076, 3106, 3061, 3169, 3329, 3359, 3314, 3422
1577, 3163, 3034, 3020, 3054, 3416, 3287, 3273, 3307
1578, 2964, 3041, 3140, 3047, 3217, 3294, 3393, 3300
1579, 3081, 2988, 3109, 3067, 3334, 3241, 3362, 3320
1580, 3081, 3108, 3002, 3149, 3334, 3361, 3255, 3402
1581, 3065, 3075, 3158, 3037, 3318, 3328, 3411, 3290
1582, 3161, 3036, 3096, 3167, 3414, 3289, 3349, 3420
1583, 3077, 3045, 3088, 3082, 3330, 3298, 3341, 3335
1584, 2955, 3050, 3067, 3109, 3208, 3303, 3320, 3362
1585, 3095, 3097, 3123, 3110, 3348, 3350, 3376, 3363
1586, 3046, 3152, 3156, 3068, 3299, 3405, 3409, 3321
1587, 3091, 3069, 3035, 3007, 3344, 3322, 3288, 3260
1588, 3159, 3071, 3083, 3095, 3412, 3324, 3336, 3348
1589, 3074, 3033, 3060, 3092, 3327, 3286, 3313, 3345
1590, 3079, 3173, 3096, 3168, 3332, 3426, 3349, 3421
1591, 3058, 3072, 3085, 3073, 3311, 3325, 3338, 3326
1592, 3059, 3073, 3086, 3128, 3312, 3326, 3339, 3381
1593, 3079, 3094, 3055, 3173, 3332, 3347, 3308, 3426
1594, 3169, 3061, 3163, 3054, 3422, 3314, 3416, 3307
1595, 3097, 3095, 3083, 3165, 3350, 3348, 3336, 3418
1596, 3070, 3168, 3096, 3036, 3323, 3421, 3349, 3289
1597, 3057, 3159, 3095, 3080, 3310, 3412, 3348, 3333
1598, 3071, 3078, 3084, 3083, 3324, 3331, 3337, 3336
1599, 3102, 3063, 3061, 3106, 3355, 3316, 3314, 3359
1600, 3127, 3086, 3073, 3085, 3380, 3339, 3326, 3338
1601, 3090, 3066, 3082, 3099, 3343, 3319, 3335, 3352
1602, 3118, 3117, 3105, 3093, 3371, 3370, 3358, 3346
1603, 3072, 3093, 3105, 3085, 3325, 3346, 3358, 3338
1604, 2963, 3128, 3045, 3134, 3216, 3381, 3298, 3387
1605, 3103, 3087, 3004, 3162, 3356, 3340, 3257, 3415
1606, 3112, 3099, 3082, 3088, 3365, 3352, 3335, 3341
1607, 3139, 3089, 3157, 3062, 3392, 3342, 3410, 3315
1608, 3048, 2965, 3089, 3139, 3301, 3218, 3342, 3392
1609, 3156, 3090, 3155, 3068, 3409, 3343, 3408, 3321
1610, 3094, 3092, 3065, 3055, 3347, 3345, 3318, 3308
1611, 3100, 3098, 3094, 3079, 3353, 3351, 3347, 3332
1612, 3118, 3093, 3120, 3121, 3371, 3346, 3373, 3374
1613, 3173, 3055, 3167, 3096, 3426, 3308, 3420, 3349
1614, 3080, 3095, 3110, 3170, 3333, 3348, 3363, 3423
1615, 3074, 3098, 3120, 3093, 3327, 3351, 3373, 3346
1616, 3099, 3112, 3122, 3104, 3352, 3365, 3375, 3357
1617, 3113, 3124, 3121, 3120, 3366, 3377, 3374, 3373
1618, 3113, 3171, 3119, 3124, 3366, 3424, 3372, 3377
1619, 3129, 3125, 3106, 3076, 3382, 3378, 3359, 3329
1620, 3081, 3067, 3102, 3108, 3334, 3320, 3355, 3361
1621, 3064, 3103, 3166, 3070, 3317, 3356, 3419, 3323
1622, 3002, 3108, 3130, 3148, 3255, 3361, 3383, 3401
1623, 3114, 3084, 3155, 3104, 3367, 3337, 3408, 3357
1624, 3172, 3076, 3169, 3170, 3425, 3329, 3422, 3423
1625, 3116, 3129, 3076, 3172, 3369, 3382, 3329, 3425
1626, 3107, 3100, 3079, 3168, 3360, 3353, 3332, 3421
1627, 3108, 3102, 3111, 3130, 3361, 3355, 3364, 3383
1628, 3115, 3111, 3125, 3101, 3368, 3364, 3378, 3354
1629, 3111, 3102, 3106, 3125, 3364, 3355, 3359, 3378
1630, 3112, 3127, 3117, 3122, 3365, 3380, 3370, 3375
1631, 3127, 3112, 3088, 3086, 3380, 3365, 3341, 3339
1632, 3118, 3121, 3164, 3123, 3371, 3374, 3417, 3376
1633, 3100, 3107, 3171, 3113, 3353, 3360, 3424, 3366
1634, 3165, 3114, 3126, 3097, 3418, 3367, 3379, 3350
1635, 3101, 3174, 3166, 3115, 3354, 3427, 3419, 3368
1636, 3131, 3124, 3116, 3172, 3384, 3377, 3369, 3425
1637, 3085, 3105, 3117, 3127, 3338, 3358, 3370, 3380
1638, 3126, 3122, 3117, 3118, 3379, 3375, 3370, 3371
1639, 3119, 3101, 3125, 3129, 3372, 3354, 3378, 3382
1640, 3121, 3124, 3131, 3164, 3374, 3377, 3384, 3417
1641, 3114, 3104, 3122, 3126, 3367, 3357, 3375, 3379
1642, 3124, 3119, 3129, 3116, 3377, 3372, 3382, 3369
1643, 3172, 3170, 3110, 3131, 3425, 3423, 3363, 3384
1644, 3126, 3118, 3123, 3097, 3379, 3371, 3376, 3350
1645, 3162, 3130, 3111, 3115, 3415, 3383, 3364, 3368
1646, 3148, 3130, 3162, 3004, 3401, 3383, 3415, 3257
1647, 3123, 3164, 3131, 3110, 3376, 3417, 3384, 3363
1648, 3135, 3132, 2938, 2956, 3388, 3385, 3191, 3209
1649, 3137, 3133, 2947, 2959, 3390, 3386, 3200, 3212
1650, 3146, 3135, 2956, 3031, 3399, 3388, 3209, 3284
1651, 3138, 2976, 2949, 2961, 3391, 3229, 3202, 3214
1652, 3140, 3041, 3030, 3141, 3393, 3294, 3283, 3394
1653, 3145, 3011, 3028, 3043, 3398, 3264, 3281, 3296
1654, 3149, 2990, 2988, 3081, 3402, 3243, 3241, 3334
1655, 3152, 3046, 3030, 3041, 3405, 3299, 3283, 3294
1656, 3154, 3026, 3159, 3057, 3407, 3279, 3412, 3310
1657, 3157, 3156, 3152, 3062, 3410, 3409, 3405, 3315
1658, 3160, 3044, 3167, 3055, 3413, 3297, 3420, 3308
1659, 3165, 3083, 3084, 3114, 3418, 3336, 3337, 3367
1660, 3174, 3168, 3070, 3166, 3427, 3421, 3323, 3419
1661, 3101, 3119, 3171, 3174, 3354, 3372, 3424, 3427
1662, 3174, 3171, 3107, 3168, 3427, 3424, 3360, 3421
1663,  916, 3189, 3179,  915,  966, 3442, 3432,  965
1664, 3385, 3388, 3249, 3231, 3638, 3641, 3502, 3484
1665, 3175,  922,  923, 3224, 3428,  972,  973, 3477
1666, 3192,  925,  926, 3226, 3445,  975,  976, 3479
1667, 3262, 3309, 3245, 3210, 3515, 3562, 3498, 3463
1668,  930, 3176, 3194,  929,  980, 3429, 3447,  979
1669, 3256, 3239, 3247, 3259, 3509, 3492, 3500, 3512
1670, 3228,  934,  935, 3196, 3481,  984,  985, 3449
1671, 3223, 3362, 3241, 3196, 3476, 3615, 3494, 3449
1672, 3177,  938,  939, 3221, 3430,  988,  989, 3474
1673, 3198,  941,  942, 3230, 3451,  991,  992, 3483
1674, 3344, 3248, 3272, 3277, 3597, 3501, 3525, 3530
1675,  947, 3180, 3200,  946,  997, 3433, 3453,  996
1676, 3180,  947,  948, 3201, 3433,  997,  998, 3454
1677, 3186,  910,  911, 3219, 3439,  960,  961, 3472
1678, 3187,  912,  913, 3220, 3440,  962,  963, 3473
1679,  915, 3179, 3188,  914,  965, 3432, 3441,  964
1680, 3222,  917,  918, 3190, 3475,  967,  968, 3443
1681,  951, 3181, 3202,  950, 1001, 3434, 3455, 1000
1682, 3196, 3241, 3243, 3228, 3449, 3494, 3496, 3481
1683, 3181, 3213, 3214, 3202, 3434, 3466, 3467, 3455
1684, 3246, 3201, 3229, 3391, 3499, 3454, 3482, 3644
1685, 3300, 3182, 3204, 3217, 3553, 3435, 3457, 3470
1686,  908, 3185, 3184,  907,  958, 3438, 3437,  957
1687, 3245, 3227, 3194, 3210, 3498, 3480, 3447, 3463
1688, 3219,  911,  912, 3187, 3472,  961,  962, 3440
1689, 3188, 3207, 3244, 3220, 3441, 3460, 3497, 3473
1690, 3219, 3254, 3216, 3186, 3472, 3507, 3469, 3439
1691, 3190,  918,  919, 3231, 3443,  968,  969, 3484
1692,  920, 3385, 3231,  919,  970, 3638, 3484,  969
1693,  922, 3175, 3191,  921,  972, 3428, 3444,  971
1694, 3224,  923,  924, 3235, 3477,  973,  974, 3488
1695, 3226,  926,  927, 3193, 3479,  976,  977, 3446
1696, 3176,  930,  931, 3225, 3429,  980,  981, 3478
1697, 3195,  933,  934, 3228, 3448,  983,  984, 3481
1698, 3320, 3303, 3316, 3355, 3573, 3556, 3569, 3608
1699,  938, 3177, 3197,  937,  988, 3430, 3450,  987
1700, 3282, 3289, 3414, 3259, 3535, 3542, 3667, 3512
1701, 3230,  942,  943, 3199, 3483,  992,  993, 3452
1702,  945, 3386, 3233,  944,  995, 3639, 3486,  994
1703, 3386, 3390, 3397, 3233, 3639, 3643, 3650, 3486
1704, 3212, 3200, 3180, 3211, 3465, 3453, 3433, 3464
1705, 3181,  951,  952, 3203, 3434, 1001, 1002, 3456
1706, 3203,  952,  953, 3182, 3456, 1002, 1003, 3435
1707, 3204,  954,  955, 3183, 3457, 1004, 1005, 3436
1708, 3394, 3214, 3213, 3395, 3647, 3467, 3466, 3648
1709, 3206, 3302, 3184, 3185, 3459, 3555, 3437, 3438
1710, 3225,  931,  932, 3234, 3478,  981,  982, 3487
1711, 3221,  939,  940, 3232, 3474,  989,  990, 3485
1712,  909, 3178, 3185,  908,  959, 3431, 3438,  958
1713, 3178,  909,  910, 3186, 3431,  959,  960, 3439
1714, 3189,  916,  917, 3222, 3442,  966,  967, 3475
1715, 3215, 3179, 3189, 3253, 3468, 3432, 3442, 3506
1716, 3201,  948,  949, 3229, 3454,  998,  999, 3482
1717, 3229,  949,  950, 3202, 3482,  999, 1000, 3455
1718, 3182,  953,  954, 3204, 3435, 1003, 1004, 3457
1719, 3395, 3203, 3182, 3300, 3648, 3456, 3435, 3553
1720, 3183,  955,  956, 3205, 3436, 1005, 1006, 3458
1721, 3217, 3204, 3183, 3301, 3470, 3457, 3436, 3554
1722, 3205,  956,  907, 3184, 3458, 1006,  957, 3437
1723, 3301, 3183, 3205, 3218, 3554, 3436, 3458, 3471
1724, 3185, 3178, 3387, 3206, 3438, 3431, 3640, 3459
1725, 3254, 3219, 3187, 3275, 3507, 3472, 3440, 3528
1726, 3220,  913,  914, 3188, 3473,  963,  964, 3441
1727, 3207, 3188, 3179, 3215, 3460, 3441, 3432, 3468
1728, 3264, 3222, 3190, 3281, 3517, 3475, 3443, 3534
1729, 3261, 3244, 3207, 3237, 3514, 3497, 3460, 3490
1730, 3209, 3191, 3175, 3268, 3462, 3444, 3428, 3521
1731, 3286, 3325, 3311, 3276, 3539, 3578, 3564, 3529
1732, 3239, 3224, 3235, 3247, 3492, 3477, 3488, 3500
1733, 3193,  927,  928, 3227, 3446,  977,  978, 3480
1734, 3227,  928,  929, 3194, 3480,  978,  979, 3447
1735, 3225, 3238, 3269, 3176, 3478, 3491, 3522, 3429
1736, 3238, 3257, 3340, 3269, 3491, 3510, 3593, 3522
1737, 3238, 3225, 3234, 3252, 3491, 3478, 3487, 3505
1738, 3196,  935,  936, 3223, 3449,  985,  986, 3476
1739, 3223,  936,  937, 3197, 3476,  986,  987, 3450
1740, 3362, 3223, 3197, 3208, 3615, 3476, 3450, 3461
1741, 3237, 3207, 3215, 3270, 3490, 3460, 3468, 3523
1742, 3240, 3221, 3232, 3250, 3493, 3474, 3485, 3503
1743, 3199,  943,  944, 3233, 3452,  993,  994, 3486
1744, 3396, 3236, 3279, 3407, 3649, 3489, 3532, 3660
1745, 3391, 3214, 3263, 3271, 3644, 3467, 3516, 3524
1746, 3181, 3203, 3395, 3213, 3434, 3456, 3648, 3466
1747, 3178, 3186, 3216, 3387, 3431, 3439, 3469, 3640
1748, 3250, 3260, 3258, 3240, 3503, 3513, 3511, 3493
1749, 3253, 3189, 3222, 3264, 3506, 3442, 3475, 3517
1750, 3208, 3197, 3177, 3267, 3461, 3450, 3430, 3520
1751, 3221, 3240, 3267, 3177, 3474, 3493, 3520, 3430
1752, 3224, 3239, 3268, 3175, 3477, 3492, 3521, 3428
1753, 3295, 3226, 3193, 3389, 3548, 3479, 3446, 3642
1754, 3210, 3194, 3176, 3269, 3463, 3447, 3429, 3522
1755, 3252, 3401, 3257, 3238, 3505, 3654, 3510, 3491
1756, 3211, 3180, 3201, 3246, 3464, 3433, 3454, 3499
1757, 3246, 3391, 3271, 3236, 3499, 3644, 3524, 3489
1758, 3272, 3230, 3199, 3285, 3525, 3483, 3452, 3538
1759, 3271, 3263, 3280, 3406, 3524, 3516, 3533, 3659
1760, 3306, 3253, 3264, 3398, 3559, 3506, 3517, 3651
1761, 3244, 3261, 3291, 3275, 3497, 3514, 3544, 3528
1762, 3254, 3312, 3381, 3216, 3507, 3565, 3634, 3469
1763, 3218, 3205, 3184, 3302, 3471, 3458, 3437, 3555
1764, 3410, 3319, 3343, 3409, 3663, 3572, 3596, 3662
1765, 3232,  940,  941, 3198, 3485,  990,  991, 3451
1766, 3235,  924,  925, 3192, 3488,  974,  975, 3445
1767, 3234,  932,  933, 3195, 3487,  982,  983, 3448
1768, 3385,  920,  921, 3191, 3638,  970,  971, 3444
1769, 3250, 3232, 3198, 3248, 3503, 3485, 3451, 3501
1770, 3386,  945,  946, 3200, 3639,  995,  996, 3453
1771, 3252, 3234, 3195, 3251, 3505, 3487, 3448, 3504
1772, 3247, 3235, 3192, 3242, 3500, 3488, 3445, 3495
1773, 3270, 3215, 3253, 3306, 3523, 3468, 3506, 3559
1774, 3400, 3268, 3239, 3256, 3653, 3521, 3492, 3509
1775, 3268, 3400, 3284, 3209, 3521, 3653, 3537, 3462
1776, 3242, 3192, 3226, 3295, 3495, 3445, 3479, 3548
1777, 3267, 3403, 3303, 3208, 3520, 3656, 3556, 3461
1778, 3248, 3198, 3230, 3272, 3501, 3451, 3483, 3525
1779, 3403, 3287, 3316, 3303, 3656, 3540, 3569, 3556
1780, 3282, 3242, 3295, 3309, 3535, 3495, 3548, 3562
1781, 3269, 3340, 3262, 3210, 3522, 3593, 3515, 3463
1782, 3243, 3402, 3255, 3251, 3496, 3655, 3508, 3504
1783, 3228, 3243, 3251, 3195, 3481, 3496, 3504, 3448
1784, 3187, 3220, 3244, 3275, 3440, 3473, 3497, 3528
1785, 3404, 3285, 3397, 3266, 3657, 3538, 3650, 3519
1786, 3258, 3273, 3287, 3403, 3511, 3526, 3540, 3656
1787, 3231, 3249, 3281, 3190, 3484, 3502, 3534, 3443
1788, 3396, 3266, 3212, 3211, 3649, 3519, 3465, 3464
1789, 3251, 3255, 3401, 3252, 3504, 3508, 3654, 3505
1790, 3237, 3278, 3276, 3261, 3490, 3531, 3529, 3514
1791, 3286, 3276, 3278, 3313, 3539, 3529, 3531, 3566
1792, 3259, 3247, 3242, 3282, 3512, 3500, 3495, 3535
1793, 3351, 3327, 3345, 3347, 3604, 3580, 3598, 3600
1794, 3260, 3250, 3248, 3344, 3513, 3503, 3501, 3597
1795, 3258, 3260, 3288, 3273, 3511, 3513, 3541, 3526
1796, 3291, 3261, 3276, 3311, 3544, 3514, 3529, 3564
1797, 3416, 3314, 3316, 3287, 3669, 3567, 3569, 3540
1798, 3300, 3393, 3394, 3395, 3553, 3646, 3647, 3648
1799, 3296, 3305, 3306, 3398, 3549, 3558, 3559, 3651
1800, 3328, 3293, 3305, 3411, 3581, 3546, 3558, 3664
1801, 3265, 3249, 3388, 3399, 3518, 3502, 3641, 3652
1802, 3397, 3390, 3212, 3266, 3650, 3643, 3465, 3519
1803, 3293, 3270, 3306, 3305, 3546, 3523, 3559, 3558
1804, 3211, 3246, 3236, 3396, 3464, 3499, 3489, 3649
1805, 3277, 3272, 3285, 3404, 3530, 3525, 3538, 3657
1806, 3344, 3277, 3292, 3322, 3597, 3530, 3545, 3575
1807, 3353, 3366, 3373, 3351, 3606, 3619, 3626, 3604
1808, 3413, 3284, 3400, 3297, 3666, 3537, 3653, 3550
1809, 3274, 3256, 3259, 3414, 3527, 3509, 3512, 3667
1810, 3275, 3291, 3312, 3254, 3528, 3544, 3565, 3507
1811, 3278, 3237, 3270, 3293, 3531, 3490, 3523, 3546
1812, 3407, 3292, 3266, 3396, 3660, 3545, 3519, 3649
1813, 3313, 3278, 3293, 3328, 3566, 3531, 3546, 3581
1814, 3406, 3280, 3331, 3324, 3659, 3533, 3584, 3577
1815, 3406, 3279, 3236, 3271, 3659, 3532, 3489, 3524
1816, 3263, 3283, 3299, 3280, 3516, 3536, 3552, 3533
1817, 3315, 3405, 3294, 3392, 3568, 3658, 3547, 3645
1818, 3249, 3265, 3296, 3281, 3502, 3518, 3549, 3534
1819, 3283, 3263, 3214, 3394, 3536, 3516, 3467, 3647
1820, 3410, 3342, 3304, 3319, 3663, 3595, 3557, 3572
1821, 3256, 3274, 3297, 3400, 3509, 3527, 3550, 3653
1822, 3399, 3284, 3413, 3290, 3652, 3537, 3666, 3543
1823, 3285, 3199, 3233, 3397, 3538, 3452, 3486, 3650
1824, 3331, 3321, 3408, 3337, 3584, 3574, 3661, 3590
1825, 3310, 3322, 3292, 3407, 3563, 3575, 3545, 3660
1826, 3262, 3317, 3323, 3309, 3515, 3570, 3576, 3562
1827, 3399, 3290, 3411, 3265, 3652, 3543, 3664, 3518
1828, 3413, 3308, 3318, 3290, 3666, 3561, 3571, 3543
1829, 3298, 3381, 3339, 3341, 3551, 3634, 3592, 3594
1830, 3292, 3277, 3404, 3266, 3545, 3530, 3657, 3519
1831, 3305, 3296, 3265, 3411, 3558, 3549, 3518, 3664
1832, 3304, 3342, 3218, 3302, 3557, 3595, 3471, 3555
1833, 3389, 3193, 3227, 3245, 3642, 3446, 3480, 3498
1834, 3245, 3309, 3295, 3389, 3498, 3562, 3548, 3642
1835, 3420, 3297, 3274, 3414, 3673, 3550, 3527, 3667
1836, 3302, 3206, 3330, 3304, 3555, 3459, 3583, 3557
1837, 3206, 3387, 3298, 3330, 3459, 3640, 3551, 3583
1838, 3333, 3423, 3422, 3307, 3586, 3676, 3675, 3560
1839, 3392, 3294, 3217, 3301, 3645, 3547, 3470, 3554
1840, 3403, 3267, 3240, 3258, 3656, 3520, 3493, 3511
1841, 3343, 3352, 3357, 3408, 3596, 3605, 3610, 3661
1842, 3307, 3273, 3288, 3322, 3560, 3526, 3541, 3575
1843, 3322, 3310, 3333, 3307, 3575, 3563, 3586, 3560
1844, 3325, 3286, 3327, 3346, 3578, 3539, 3580, 3599
1845, 3309, 3323, 3289, 3282, 3562, 3576, 3542, 3535
1846, 3419, 3356, 3415, 3368, 3672, 3609, 3668, 3621
1847, 3317, 3262, 3340, 3356, 3570, 3515, 3593, 3609
1848, 3279, 3406, 3324, 3412, 3532, 3659, 3577, 3665
1849, 3321, 3331, 3280, 3299, 3574, 3584, 3533, 3552
1850, 3326, 3312, 3291, 3311, 3579, 3565, 3544, 3564
1851, 3335, 3319, 3304, 3330, 3588, 3572, 3557, 3583
1852, 3328, 3318, 3345, 3313, 3581, 3571, 3598, 3566
1853, 3329, 3359, 3314, 3422, 3582, 3612, 3567, 3675
1854, 3416, 3287, 3273, 3307, 3669, 3540, 3526, 3560
1855, 3217, 3294, 3393, 3300, 3470, 3547, 3646, 3553
1856, 3334, 3241, 3362, 3320, 3587, 3494, 3615, 3573
1857, 3334, 3361, 3255, 3402, 3587, 3614, 3508, 3655
1858, 3318, 3328, 3411, 3290, 3571, 3581, 3664, 3543
1859, 3414, 3289, 3349, 3420, 3667, 3542, 3602, 3673
1860, 3330, 3298, 3341, 3335, 3583, 3551, 3594, 3588
1861, 3208, 3303, 3320, 3362, 3461, 3556, 3573, 3615
1862, 3348, 3350, 3376, 3363, 3601, 3603, 3629, 3616
1863, 3299, 3405, 3409, 3321, 3552, 3658, 3662, 3574
1864, 3344, 3322, 3288, 3260, 3597, 3575, 3541, 3513
1865, 3412, 3324, 3336, 3348, 3665, 3577, 3589, 3601
1866, 3327, 3286, 3313, 3345, 3580, 3539, 3566, 3598
1867, 3332, 3426, 3349, 3421, 3585, 3679, 3602, 3674
1868, 3311, 3325, 3338, 3326, 3564, 3578, 3591, 3579
1869, 3312, 3326, 3339, 3381, 3565, 3579, 3592, 3634
1870, 3332, 3347, 3308, 3426, 3585, 3600, 3561, 3679
1871, 3422, 3314, 3416, 3307, 3675, 3567, 3669, 3560
1872, 3350, 3348, 3336, 3418, 3603, 3601, 3589, 3671
1873, 3323, 3421, 3349, 3289, 3576, 3674, 3602, 3542
1874, 3310, 3412, 3348, 3333, 3563, 3665, 3601, 3586
1875, 3324, 3331, 3337, 3336, 3577, 3584, 3590, 3589
1876, 3355, 3316, 3314, 3359, 3608, 3569, 3567, 3612
1877, 3380, 3339, 3326, 3338, 3633, 3592, 3579, 3591
1878, 3343, 3319, 3335, 3352, 3596, 3572, 3588, 3605
1879, 3371, 3370, 3358, 3346, 3624, 3623, 3611, 3599
1880, 3325, 3346, 3358, 3338, 3578, 3599, 3611, 3591
1881, 3216, 3381, 3298, 3387, 3469, 3634, 3551, 3640
1882, 3356, 3340, 3257, 3415, 3609, 3593, 3510, 3668
1883, 3365, 3352, 3335, 3341, 3618, 3605, 3588, 3594
1884, 3392, 3342, 3410, 3315, 3645, 3595, 3663, 3568
1885, 3301, 3218, 3342, 3392, 3554, 3471, 3595, 3645
1886, 3409, 3343, 3408, 3321, 3662, 3596, 3661, 3574
1887, 3347, 3345, 3318, 3308, 3600, 3598, 3571, 3561
1888, 3353, 3351, 3347, 3332, 3606, 3604, 3600, 3585
1889, 3371, 3346, 3373, 3374, 3624, 3599, 3626, 3627
1890, 3426, 3308, 3420, 3349, 3679, 3561, 3673, 3602
1891, 3333, 3348, 3363, 3423, 3586, 3601, 3616, 3676
1892, 3327, 3351, 3373, 3346, 3580, 3604, 3626, 3599
1893, 3352, 3365, 3375, 3357, 3605, 3618, 3628, 3610
1894, 3366, 3377, 3374, 3373, 3619, 3630, 3627, 3626
1895, 3366, 3424, 3372, 3377, 3619, 3677, 3625, 3630
1896, 3382, 3378, 3359, 3329, 3635, 3631, 3612, 3582
1897, 3334, 3320, 3355, 3361, 3587, 3573, 3608, 3614
1898, 3317, 3356, 3419, 3323, 3570, 3609, 3672, 3576
1899, 3255, 3361, 3383, 3401, 3508, 3614, 3636, 3654
1900, 3367, 3337, 3408, 3357, 3620, 3590, 3661, 3610
1901, 3425, 3329, 3422, 3423, 3678, 3582, 3675, 3676
1902, 3369, 3382, 3329, 3425, 3622, 3635, 3582, 3678
1903, 3360, 3353, 3332, 3421, 3613, 3606, 3585, 3674
1904, 3361, 3355, 3364, 3383, 3614, 3608, 3617, 3636
1905, 3368, 3364, 3378, 3354, 3621, 3617, 3631, 3607
1906, 3364, 3355, 3359, 3378, 3617, 3608, 3612, 3631
1907, 3365, 3380, 3370, 3375, 3618, 3633, 3623, 3628
1908, 3380, 3365, 3341, 3339, 3633, 3618, 3594, 3592
1909, 3371, 3374, 3417, 3376, 3624, 3627, 3670, 3629
1910, 3353, 3360, 3424, 3366, 3606, 3613, 3677, 3619
1911, 3418, 3367, 3379, 3350, 3671, 3620, 3632, 3603
1912, 3354, 3427, 3419, 3368, 3607, 3680, 3672, 3621
1913, 3384, 3377, 3369, 3425, 3637, 3630, 3622, 3678
1914, 3338, 3358, 3370, 3380, 3591, 3611, 3623, 3633
1915, 3379, 3375, 3370, 3371, 3632, 3628, 3623, 3624
1916, 3372, 3354, 3378, 3382, 3625, 3607, 3631, 3635
1917, 3374, 3377, 3384, 3417, 3627, 3630, 3637, 3670
1918, 3367, 3357, 3375, 3379, 3620, 3610, 3628, 3632
1919, 3377, 3372, 3382, 3369, 3630, 3625, 3635, 3622
1920, 3425, 3423, 3363, 3384, 3678, 3676, 3616, 3637
1921, 3379, 3371, 3376, 3350, 3632, 3624, 3629, 3603
1922, 3415, 3383, 3364, 3368, 3668, 3636, 3617, 3621
1923, 3401, 3383, 3415, 3257, 3654, 3636, 3668, 3510
1924, 3376, 3417, 3384, 3363, 3629, 3670, 3637, 3616
1925, 3388, 3385, 3191, 3209, 3641, 3638, 3444, 3462
1926, 3390, 3386, 3200, 3212, 3643, 3639, 3453, 3465
1927, 3399, 3388, 3209, 3284, 3652, 3641, 3462, 3537
1928, 3391, 3229, 3202, 3214, 3644, 3482, 3455, 3467
1929, 3393, 3294, 3283, 3394, 3646, 3547, 3536, 3647
1930, 3398, 3264, 3281, 3296, 3651, 3517, 3534, 3549
1931, 3402, 3243, 3241, 3334, 3655, 3496, 3494, 3587
1932, 3405, 3299, 3283, 3294, 3658, 3552, 3536, 3547
1933, 3407, 3279, 3412, 3310, 3660, 3532, 3665, 3563
1934, 3410, 3409, 3405, 3315, 3663, 3662, 3658, 3568
1935, 3413, 3297, 3420, 3308, 3666, 3550, 3673, 3561
1936, 3418, 3336, 3337, 3367, 3671, 3589, 3590, 3620
1937, 3427, 3421, 3323, 3419, 3680, 3674, 3576, 3672
1938, 3354, 3372, 3424, 3427, 3607, 3625, 3677, 3680
1939, 3427, 3424, 3360, 3421, 3680, 3677, 3613, 3674
1940,  966, 3442, 3432,  965, 1016, 3695, 3685, 1015
1941, 3638, 3641, 3502, 3484, 3891, 3894, 3755, 3737
1942, 3428,  972,  973, 3477, 3681, 1022, 1023, 3730
1943, 3445,  975,  976, 3479, 3698, 1025, 1026, 3732
1944, 3515, 3562, 3498, 3463, 3768, 3815, 3751, 3716
1945,  980, 3429, 3447,  979, 1030, 3682, 3700, 1029
1946, 3509, 3492, 3500, 3512, 3762, 3745, 3753, 3765
1947, 3481,  984,  985, 3449, 3734, 1034, 1035, 3702
1948, 3476, 3615, 3494, 3449, 3729, 3868, 3747, 3702
1949, 3430,  988,  989, 3474, 3683, 1038, 1039, 3727
1950, 3451,  991,  992, 3483, 3704, 1041, 1042, 3736
1951, 3597, 3501, 3525, 3530, 3850, 3754, 3778, 3783
1952,  997, 3433, 3453,  996, 1047, 3686, 3706, 1046
1953, 3433,  997,  998, 3454, 3686, 1047, 1048, 3707
1954, 3439,  960,  961, 3472, 3692, 1010, 1011, 3725
1955, 3440,  962,  963, 3473, 3693, 1012, 1013, 3726
1956,  965, 3432, 3441,  964, 1015, 3685, 3694, 1014
1957, 3475,  967,  968, 3443, 3728, 1017, 1018, 3696
1958, 1001, 3434, 3455, 1000, 1051, 3687, 3708, 1050
1959, 3449, 3494, 3496, 3481, 3702, 3747, 3749, 3734
1960, 3434, 3466, 3467, 3455, 3687, 3719, 3720, 3708
1961, 3499, 3454, 3482, 3644, 3752, 3707, 3735, 3897
1962, 3553, 3435, 3457, 3470, 3806, 3688, 3710, 3723
1963,  958, 3438, 3437,  957, 1008, 3691, 3690, 1007
1964, 3498, 3480, 3447, 3463, 3751, 3733, 3700, 3716
1965, 3472,  961,  962, 3440, 3725, 1011, 1012, 3693
1966, 3441, 3460, 3497, 3473, 3694, 3713, 3750, 3726
1967, 3472, 3507, 3469, 3439, 3725, 3760, 3722, 3692
1968, 3443,  968,  969, 3484, 3696, 1018, 1019, 3737
1969,  970, 3638, 3484,  969, 1020, 3891, 3737, 1019
1970,  972, 3428, 3444,  971, 1022, 3681, 3697, 1021
1971, 3477,  973,  974, 3488, 3730, 1023, 1024, 3741
1972, 3479,  976,  977, 3446, 3732, 1026, 1027, 3699
1973, 3429,  980,  981, 3478, 3682, 1030, 1031, 3731
1974, 3448,  983,  984, 3481, 3701, 1033, 1034, 3734
1975, 3573, 3556, 3569, 3608, 3826, 3809, 3822, 3861
1976,  988, 3430, 3450,  987, 1038, 3683, 3703, 1037
1977, 3535, 3542, 3667, 3512, 3788, 3795, 3920, 3765
1978, 3483,  992,  993, 3452, 3736, 1042, 1043, 3705
1979,  995, 3639, 3486,  994, 1045, 3892, 3739, 1044
1980, 3639, 3643, 3650, 3486, 3892, 3896, 3903, 3739
1981, 3465, 3453, 3433, 3464, 3718, 3706, 3686, 3717
1982, 3434, 1001, 1002, 3456, 3687, 1051, 1052, 3709
1983, 3456, 1002, 1003, 3435, 3709, 1052, 1053, 3688
1984, 3457, 1004, 1005, 3436, 3710, 1054, 1055, 3689
1985, 3647, 3467, 3466, 3648, 3900, 3720, 3719, 3901
1986, 3459, 3555, 3437, 3438, 3712, 3808, 3690, 3691
1987, 3478,  981,  982, 3487, 3731, 1031, 1032, 3740
1988, 3474,  989,  990, 3485, 3727, 1039, 1040, 3738
1989,  959, 3431, 3438,  958, 1009, 3684, 3691, 1008
1990, 3431,  959,  960, 3439, 3684, 1009, 1010, 3692
1991, 3442,  966,  967, 3475, 3695, 1016, 1017, 3728
1992, 3468, 3432, 3442, 3506, 3721, 3685, 3695, 3759
1993, 3454,  998,  999, 3482, 3707, 1048, 1049, 3735
1994, 3482,  999, 1000, 3455, 3735, 1049, 1050, 3708
1995, 3435, 1003, 1004, 3457, 3688, 1053, 1054, 3710
1996, 3648, 3456, 3435, 3553, 3901, 3709, 3688, 3806
1997, 3436, 1005, 1006, 3458, 3689, 1055, 1056, 3711
1998, 3470, 3457, 3436, 3554, 3723, 3710, 3689, 3807
1999, 3458, 1006,  957, 3437, 3711, 1056, 1007, 3690
2000, 3554, 3436, 3458, 3471, 3807, 3689, 3711, 3724
2001, 3438, 3431, 3640, 3459, 3691, 3684, 3893, 3712
2002, 3507, 3472, 3440, 3528, 3760, 3725, 3693, 3781
2003, 3473,  963,  964, 3441, 3726, 1013, 1014, 3694
2004, 3460, 3441, 3432, 3468, 3713, 3694, 3685, 3721
2005, 3517, 3475, 3443, 3534, 3770, 3728, 3696, 3787
2006, 3514, 3497, 3460, 3490, 3767, 3750, 3713, 3743
2007, 3462, 3444, 3428, 3521, 3715, 3697, 3681, 3774
2008, 3539, 3578, 3564, 3529, 3792, 3831, 3817, 3782
2009, 3492, 3477, 3488, 3500, 3745, 3730, 3741, 3753
2010, 3446,  977,  978, 3480, 3699, 1027, 1028, 3733
2011, 3480,  978,  979, 3447, 3733, 1028, 1029, 3700
2012, 3478, 3491, 3522, 3429, 3731, 3744, 3775, 3682
2013, 3491, 3510, 3593, 3522, 3744, 3763, 3846, 3775
2014, 3491, 3478, 3487, 3505, 3744, 3731, 3740, 3758
2015, 3449,  985,  986, 3476, 3702, 1035, 1036, 3729
2016, 3476,  986,  987, 3450, 3729, 1036, 1037, 3703
2017, 3615, 3476, 3450, 3461, 3868, 3729, 3703, 3714
2018, 3490, 3460, 3468, 3523, 3743, 3713, 3721, 3776
2019, 3493, 3474, 3485, 3503, 3746, 3727, 3738, 3756
2020, 3452,  993,  994, 3486, 3705, 1043, 1044, 3739
2021, 3649, 3489, 3532, 3660, 3902, 3742, 3785, 3913
2022, 3644, 3467, 3516, 3524, 3897, 3720, 3769, 3777
2023, 3434, 3456, 3648, 3466, 3687, 3709, 3901, 3719
2024, 3431, 3439, 3469, 3640, 3684, 3692, 3722, 3893
2025, 3503, 3513, 3511, 3493, 3756, 3766, 3764, 3746
2026, 3506, 3442, 3475, 3517, 3759, 3695, 3728, 3770
2027, 3461, 3450, 3430, 3520, 3714, 3703, 3683, 3773
2028, 3474, 3493, 3520, 3430, 3727, 3746, 3773, 3683
2029, 3477, 3492, 3521, 3428, 3730, 3745, 3774, 3681
2030, 3548, 3479, 3446, 3642, 3801, 3732, 3699, 3895
2031, 3463, 3447, 3429, 3522, 3716, 3700, 3682, 3775
2032, 3505, 3654, 3510, 3491, 3758, 3907, 3763, 3744
2033, 3464, 3433, 3454, 3499, 3717, 3686, 3707, 3752
2034, 3499, 3644, 3524, 3489, 3752, 3897, 3777, 3742
2035, 3525, 3483, 3452, 3538, 3778, 3736, 3705, 3791
2036, 3524, 3516, 3533, 3659, 3777, 3769, 3786, 3912
2037, 3559, 3506, 3517, 3651, 3812, 3759, 3770, 3904
2038, 3497, 3514, 3544, 3528, 3750, 3767, 3797, 3781
2039, 3507, 3565, 3634, 3469, 3760, 3818, 3887, 3722
2040, 3471, 3458, 3437, 3555, 3724, 3711, 3690, 3808
2041, 3663, 3572, 3596, 3662, 3916, 3825, 3849, 3915
2042, 3485,  990,  991, 3451, 3738, 1040, 1041, 3704
2043, 3488,  974,  975, 3445, 3741, 1024, 1025, 3698
2044, 3487,  982,  983, 3448, 3740, 1032, 1033, 3701
2045, 3638,  970,  971, 3444, 3891, 1020, 1021, 3697
2046, 3503, 3485, 3451, 3501, 3756, 3738, 3704, 3754
2047, 3639,  995,  996, 3453, 3892, 1045, 1046, 3706
2048, 3505, 3487, 3448, 3504, 3758, 3740, 3701, 3757
2049, 3500, 3488, 3445, 3495, 3753, 3741, 3698, 3748
2050, 3523, 3468, 3506, 3559, 3776, 3721, 3759, 3812
2051, 3653, 3521, 3492, 3509, 3906, 3774, 3745, 3762
2052, 3521, 3653, 3537, 3462, 3774, 3906, 3790, 3715
2053, 3495, 3445, 3479, 3548, 3748, 3698, 3732, 3801
2054, 3520, 3656, 3556, 3461, 3773, 3909, 3809, 3714
2055, 3501, 3451, 3483, 3525, 3754, 3704, 3736, 3778
2056, 3656, 3540, 3569, 3556, 3909, 3793, 3822, 3809
2057, 3535, 3495, 3548, 3562, 3788, 3748, 3801, 3815
2058, 3522, 3593, 3515, 3463, 3775, 3846, 3768, 3716
2059, 3496, 3655, 3508, 3504, 3749, 3908, 3761, 3757
2060, 3481, 3496, 3504, 3448, 3734, 3749, 3757, 3701
2061, 3440, 3473, 3497, 3528, 3693, 3726, 3750, 3781
2062, 3657, 3538, 3650, 3519, 3910, 3791, 3903, 3772
2063, 3511, 3526, 3540, 3656, 3764, 3779, 3793, 3909
2064, 3484, 3502, 3534, 3443, 3737, 3755, 3787, 3696
2065, 3649, 3519, 3465, 3464, 3902, 3772, 3718, 3717
2066, 3504, 3508, 3654, 3505, 3757, 3761, 3907, 3758
2067, 3490, 3531, 3529, 3514, 3743, 3784, 3782, 3767
2068, 3539, 3529, 3531, 3566, 3792, 3782, 3784, 3819
2069, 3512, 3500, 3495, 3535, 3765, 3753, 3748, 3788
2070, 3604, 3580, 3598, 3600, 3857, 3833, 3851, 3853
2071, 3513, 3503, 3501, 3597, 3766, 3756, 3754, 3850
2072, 3511, 3513, 3541, 3526, 3764, 3766, 3794, 3779
2073, 3544, 3514, 3529, 3564, 3797, 3767, 3782, 3817
2074, 3669, 3567, 3569, 3540, 3922, 3820, 3822, 3793
2075, 3553, 3646, 3647, 3648, 3806, 3899, 3900, 3901
2076, 3549, 3558, 3559, 3651, 3802, 3811, 3812, 3904
2077, 3581, 3546, 3558, 3664, 3834, 3799, 3811, 3917
2078, 3518, 3502, 3641, 3652, 3771, 3755, 3894, 3905
2079, 3650, 3643, 3465, 3519, 3903, 3896, 3718, 3772
2080, 3546, 3523, 3559, 3558, 3799, 3776, 3812, 3811
2081, 3464, 3499, 3489, 3649, 3717, 3752, 3742, 3902
2082, 3530, 3525, 3538, 3657, 3783, 3778, 3791, 3910
2083, 3597, 3530, 3545, 3575, 3850, 3783, 3798, 3828
2084, 3606, 3619, 3626, 3604, 3859, 3872, 3879, 3857
2085, 3666, 3537, 3653, 3550, 3919, 3790, 3906, 3803
2086, 3527, 3509, 3512, 3667, 3780, 3762, 3765, 3920
2087, 3528, 3544, 3565, 3507, 3781, 3797, 3818, 3760
2088, 3531, 3490, 3523, 3546, 3784, 3743, 3776, 3799
2089, 3660, 3545, 3519, 3649, 3913, 3798, 3772, 3902
2090, 3566, 3531, 3546, 3581, 3819, 3784, 3799, 3834
2091, 3659, 3533, 3584, 3577, 3912, 3786, 3837, 3830
2092, 3659, 3532, 3489, 3524, 3912, 3785, 3742, 3777
2093, 3516, 3536, 3552, 3533, 3769, 3789, 3805, 3786
2094, 3568, 3658, 3547, 3645, 3821, 3911, 3800, 3898
2095, 3502, 3518, 3549, 3534, 3755, 3771, 3802, 3787
2096, 3536, 3516, 3467, 3647, 3789, 3769, 3720, 3900
2097, 3663, 3595, 3557, 3572, 3916, 3848, 3810, 3825
2098, 3509, 3527, 3550, 3653, 3762, 3780, 3803, 3906
2099, 3652, 3537, 3666, 3543, 3905, 3790, 3919, 3796
2100, 3538, 3452, 3486, 3650, 3791, 3705, 3739, 3903
2101, 3584, 3574, 3661, 3590, 3837, 3827, 3914, 3843
2102, 3563, 3575, 3545, 3660, 3816, 3828, 3798, 3913
2103, 3515, 3570, 3576, 3562, 3768, 3823, 3829, 3815
2104, 3652, 3543, 3664, 3518, 3905, 3796, 3917, 3771
2105, 3666, 3561, 3571, 3543, 3919, 3814, 3824, 3796
2106, 3551, 3634, 3592, 3594, 3804, 3887, 3845, 3847
2107, 3545, 3530, 3657, 3519, 3798, 3783, 3910, 3772
2108, 3558, 3549, 3518, 3664, 3811, 3802, 3771, 3917
2109, 3557, 3595, 3471, 3555, 3810, 3848, 3724, 3808
2110, 3642, 3446, 3480, 3498, 3895, 3699, 3733, 3751
2111, 3498, 3562, 3548, 3642, 3751, 3815, 3801, 3895
2112, 3673, 3550, 3527, 3667, 3926, 3803, 3780, 3920
2113, 3555, 3459, 3583, 3557, 3808, 3712, 3836, 3810
2114, 3459, 3640, 3551, 3583, 3712, 3893, 3804, 3836
2115, 3586, 3676, 3675, 3560, 3839, 3929, 3928, 3813
2116, 3645, 3547, 3470, 3554, 3898, 3800, 3723, 3807
2117, 3656, 3520, 3493, 3511, 3909, 3773, 3746, 3764
2118, 3596, 3605, 3610, 3661, 3849, 3858, 3863, 3914
2119, 3560, 3526, 3541, 3575, 3813, 3779, 3794, 3828
2120, 3575, 3563, 3586, 3560, 3828, 3816, 3839, 3813
2121, 3578, 3539, 3580, 3599, 3831, 3792, 3833, 3852
2122, 3562, 3576, 3542, 3535, 3815, 3829, 3795, 3788
2123, 3672, 3609, 3668, 3621, 3925, 3862, 3921, 3874
2124, 3570, 3515, 3593, 3609, 3823, 3768, 3846, 3862
2125, 3532, 3659, 3577, 3665, 3785, 3912, 3830, 3918
2126, 3574, 3584, 3533, 3552, 3827, 3837, 3786, 3805
2127, 3579, 3565, 3544, 3564, 3832, 3818, 3797, 3817
2128, 3588, 3572, 3557, 3583, 3841, 3825, 3810, 3836
2129, 3581, 3571, 3598, 3566, 3834, 3824, 3851, 3819
2130, 3582, 3612, 3567, 3675, 3835, 3865, 3820, 3928
2131, 3669, 3540, 3526, 3560, 3922, 3793, 3779, 3813
2132, 3470, 3547, 3646, 3553, 3723, 3800, 3899, 3806
2133, 3587, 3494, 3615, 3573, 3840, 3747, 3868, 3826
2134, 3587, 3614, 3508, 3655, 3840, 3867, 3761, 3908
2135, 3571, 3581, 3664, 3543, 3824, 3834, 3917, 3796
2136, 3667, 3542, 3602, 3673, 3920, 3795, 3855, 3926
2137, 3583, 3551, 3594, 3588, 3836, 3804, 3847, 3841
2138, 3461, 3556, 3573, 3615, 3714, 3809, 3826, 3868
2139, 3601, 3603, 3629, 3616, 3854, 3856, 3882, 3869
2140, 3552, 3658, 3662, 3574, 3805, 3911, 3915, 3827
2141, 3597, 3575, 3541, 3513, 3850, 3828, 3794, 3766
2142, 3665, 3577, 3589, 3601, 3918, 3830, 3842, 3854
2143, 3580, 3539, 3566, 3598, 3833, 3792, 3819, 3851
2144, 3585, 3679, 3602, 3674, 3838, 3932, 3855, 3927
2145, 3564, 3578, 3591, 3579, 3817, 3831, 3844, 3832
2146, 3565, 3579, 3592, 3634, 3818, 3832, 3845, 3887
2147, 3585, 3600, 3561, 3679, 3838, 3853, 3814, 3932
2148, 3675, 3567, 3669, 3560, 3928, 3820, 3922, 3813
2149, 3603, 3601, 3589, 3671, 3856, 3854, 3842, 3924
2150, 3576, 3674, 3602, 3542, 3829, 3927, 3855, 3795
2151, 3563, 3665, 3601, 3586, 3816, 3918, 3854, 3839
2152, 3577, 3584, 3590, 3589, 3830, 3837, 3843, 3842
2153, 3608, 3569, 3567, 3612, 3861, 3822, 3820, 3865
2154, 3633, 3592, 3579, 3591, 3886, 3845, 3832, 3844
2155, 3596, 3572, 3588, 3605, 3849, 3825, 3841, 3858
2156, 3624, 3623, 3611, 3599, 3877, 3876, 3864, 3852
2157, 3578, 3599, 3611, 3591, 3831, 3852, 3864, 3844
2158, 3469, 3634, 3551, 3640, 3722, 3887, 3804, 3893
2159, 3609, 3593, 3510, 3668, 3862, 3846, 3763, 3921
2160, 3618, 3605, 3588, 3594, 3871, 3858, 3841, 3847
2161, 3645, 3595, 3663, 3568, 3898, 3848, 3916, 3821
2162, 3554, 3471, 3595, 3645, 3807, 3724, 3848, 3898
2163, 3662, 3596, 3661, 3574, 3915, 3849, 3914, 3827
2164, 3600, 3598, 3571, 3561, 3853, 3851, 3824, 3814
2165, 3606, 3604, 3600, 3585, 3859, 3857, 3853, 3838
2166, 3624, 3599, 3626, 3627, 3877, 3852, 3879, 3880
2167, 3679, 3561, 3673, 3602, 3932, 3814, 3926, 3855
2168, 3586, 3601, 3616, 3676, 3839, 3854, 3869, 3929
2169, 3580, 3604, 3626, 3599, 3833, 3857, 3879, 3852
2170, 3605, 3618, 3628, 3610, 3858, 3871, 3881, 3863
2171, 3619, 3630, 3627, 3626, 3872, 3883, 3880, 3879
2172, 3619, 3677, 3625, 3630, 3872, 3930, 3878, 3883
2173, 3635, 3631, 3612, 3582, 3888, 3884, 3865, 3835
2174, 3587, 3573, 3608, 3614, 3840, 3826, 3861, 3867
2175, 3570, 3609, 3672, 3576, 3823, 3862, 3925, 3829
2176, 3508, 3614, 3636, 3654, 3761, 3867, 3889, 3907
2177, 3620, 3590, 3661, 3610, 3873, 3843, 3914, 3863
2178, 3678, 3582, 3675, 3676, 3931, 3835, 3928, 3929
2179, 3622, 3635, 3582, 3678, 3875, 3888, 3835, 3931
2180, 3613, 3606, 3585, 3674, 3866, 3859, 3838, 3927
2181, 3614, 3608, 3617, 3636, 3867, 3861, 3870, 3889
2182, 3621, 3617, 3631, 3607, 3874, 3870, 3884, 3860
2183, 3617, 3608, 3612, 3631, 3870, 3861, 3865, 3884
2184, 3618, 3633, 3623, 3628, 3871, 3886, 3876, 3881
2185, 3633, 3618, 3594, 3592, 3886, 3871, 3847, 3845
2186, 3624, 3627, 3670, 3629, 3877, 3880, 3923, 3882
2187, 3606, 3613, 3677, 3619, 3859, 3866, 3930, 3872
2188, 3671, 3620, 3632, 3603, 3924, 3873, 3885, 3856
2189, 3607, 3680, 3672, 3621, 3860, 3933, 3925, 3874
2190, 3637, 3630, 3622, 3678, 3890, 3883, 3875, 3931
2191, 3591, 3611, 3623, 3633, 3844, 3864, 3876, 3886
2192, 3632, 3628, 3623, 3624, 3885, 3881, 3876, 3877
2193, 3625, 3607, 3631, 3635, 3878, 3860, 3884, 3888
2194, 3627, 3630, 3637, 3670, 3880, 3883, 3890, 3923
2195, 3620, 3610, 3628, 3632, 3873, 3863, 3881, 3885
2196, 3630, 3625, 3635, 3622, 3883, 3878, 3888, 3875
2197, 3678, 3676, 3616, 3637, 3931, 3929, 3869, 3890
2198, 3632, 3624, 3629, 3603, 3885, 3877, 3882, 3856
2199, 3668, 3636, 3617, 3621, 3921, 3889, 3870, 3874
2200, 3654, 3636, 3668, 3510, 3907, 3889, 3921, 3763
2201, 3629, 3670, 3637, 3616, 3882, 3923, 3890, 3869
2202, 3641, 3638, 3444, 3462, 3894, 3891, 3697, 3715
2203, 3643, 3639, 3453, 3465, 3896, 3892, 3706, 3718
2204, 3652, 3641, 3462, 3537, 3905, 3894, 3715, 3790
2205, 3644, 3482, 3455, 3467, 3897, 3735, 3708, 3720
2206, 3646, 3547, 3536, 3647, 3899, 3800, 3789, 3900
2207, 3651, 3517, 3534, 3549, 3904, 3770, 3787, 3802
2208, 3655, 3496, 3494, 3587, 3908, 3749, 3747, 3840
2209, 3658, 3552, 3536, 3547, 3911, 3805, 3789, 3800
2210, 3660, 3532, 3665, 3563, 3913, 3785, 3918, 3816
2211, 3663, 3662, 3658, 3568, 3916, 3915, 3911, 3821
2212, 3666, 3550, 3673, 3561, 3919, 3803, 3926, 3814
2213, 3671, 3589, 3590, 3620, 3924, 3842, 3843, 3873
2214, 3680, 3674, 3576, 3672, 3933, 3927, 3829, 3925
2215, 3607, 3625, 3677, 3680, 3860, 3878, 3930, 3933
2216, 3680, 3677, 3613, 3674, 3933, 3930, 3866, 3927
2217, 1016, 3695, 3685, 1015, 1066, 3948, 3938, 1065
2218, 3891, 3894, 3755, 3737, 4144, 4147, 4008, 3990
2219, 3681, 1022, 1023, 3730, 3934, 1072, 1073, 3983
2220, 3698, 1025, 1026, 3732, 3951, 1075, 1076, 3985
2221, 3768, 3815, 3751, 3716, 4021, 4068, 4004, 3969
2222, 1030, 3682, 3700, 1029, 1080, 3935, 3953, 1079
2223, 3762, 3745, 3753, 3765, 4015, 3998, 4006, 4018
2224, 3734, 1034, 1035, 3702, 3987, 1084, 1085, 3955
2225, 3729, 3868, 3747, 3702, 3982, 4121, 4000, 3955
2226, 3683, 1038, 1039, 3727, 3936, 1088, 1089, 3980
2227, 3704, 1041, 1042, 3736, 3957, 1091, 1092, 3989
2228, 3850, 3754, 3778, 3783, 4103, 4007, 4031, 4036
2229, 1047, 3686, 3706, 1046, 1097, 3939, 3959, 1096
2230, 3686, 1047, 1048, 3707, 3939, 1097, 1098, 3960
2231, 3692, 1010, 1011, 3725, 3945, 1060, 1061, 3978
2232, 3693, 1012, 1013, 3726, 3946, 1062, 1063, 3979
2233, 1015, 3685, 3694, 1014, 1065, 3938, 3947, 1064
2234, 3728, 1017, 1018, 3696, 3981, 1067, 1068, 3949
2235, 1051, 3687, 3708, 1050, 1101, 3940, 3961, 1100
2236, 3702, 3747, 3749, 3734, 3955, 4000, 4002, 3987
2237, 3687, 3719, 3720, 3708, 3940, 3972, 3973, 3961
2238, 3752, 3707, 3735, 3897, 4005, 3960, 3988, 4150
2239, 3806, 3688, 3710, 3723, 4059, 3941, 3963, 3976
2240, 1008, 3691, 3690, 1007, 1058, 3944, 3943, 1057
2241, 3751, 3733, 3700, 3716, 4004, 3986, 3953, 3969
2242, 3725, 1011, 1012, 3693, 3978, 1061, 1062, 3946
2243, 3694, 3713, 3750, 3726, 3947, 3966, 4003, 3979
2244, 3725, 3760, 3722, 3692, 3978, 4013, 3975, 3945
2245, 3696, 1018, 1019, 3737, 3949, 1068, 1069, 3990
2246, 1020, 3891, 3737, 1019, 1070, 4144, 3990, 1069
2247, 1022, 3681, 3697, 1021, 1072, 3934, 3950, 1071
2248, 3730, 1023, 1024, 3741, 3983, 1073, 1074, 3994
2249, 3732, 1026, 1027, 3699, 3985, 1076, 1077, 3952
2250, 3682, 1030, 1031, 3731, 3935, 1080, 1081, 3984
2251, 3701, 1033, 1034, 3734, 3954, 1083, 1084, 3987
2252, 3826, 3809, 3822, 3861, 4079, 4062, 4075, 4114
2253, 1038, 3683, 3703, 1037, 1088, 3936, 3956, 1087
2254, 3788, 3795, 3920, 3765, 4041, 4048, 4173, 4018
2255, 3736, 1042, 1043, 3705, 3989, 1092, 1093, 3958
2256, 1045, 3892, 3739, 1044, 1095, 4145, 3992, 1094
2257, 3892, 3896, 3903, 3739, 4145, 4149, 4156, 3992
2258, 3718, 3706, 3686, 3717, 3971, 3959, 3939, 3970
2259, 3687, 1051, 1052, 3709, 3940, 1101, 1102, 3962
2260, 3709, 1052, 1053, 3688, 3962, 1102, 1103, 3941
2261, 3710, 1054, 1055, 3689, 3963, 1104, 1105, 3942
2262, 3900, 3720, 3719, 3901, 4153, 3973, 3972, 4154
2263, 3712, 3808, 3690, 3691, 3965, 4061, 3943, 3944
2264, 3731, 1031, 1032, 3740, 3984, 1081, 1082, 3993
2265, 3727, 1039, 1040, 3738, 3980, 1089, 1090, 3991
2266, 1009, 3684, 3691, 1008, 1059, 3937, 3944, 1058
2267, 3684, 1009, 1010, 3692, 3937, 1059, 1060, 3945
2268, 3695, 1016, 1017, 3728, 3948, 1066, 1067, 3981
2269, 3721, 3685, 3695, 3759, 3974, 3938, 3948, 4012
2270, 3707, 1048, 1049, 3735, 3960, 1098, 1099, 3988
2271, 3735, 1049, 1050, 3708, 3988, 1099, 1100, 3961
2272, 3688, 1053, 1054, 3710, 3941, 1103, 1104, 3963
2273, 3901, 3709, 3688, 3806, 4154, 3962, 3941, 4059
2274, 3689, 1055, 1056, 3711, 3942, 1105, 1106, 3964
2275, 3723, 3710, 3689, 3807, 3976, 3963, 3942, 4060
2276, 3711, 1056, 1007, 3690, 3964, 1106, 1057, 3943
2277, 3807, 3689, 3711, 3724, 4060, 3942, 3964, 3977
2278, 3691, 3684, 3893, 3712, 3944, 3937, 4146, 3965
2279, 3760, 3725, 3693, 3781, 4013, 3978, 3946, 4034
2280, 3726, 1013, 1014, 3694, 3979, 1063, 1064, 3947
2281, 3713, 3694, 3685, 3721, 3966, 3947, 3938, 3974
2282, 3770, 3728, 3696, 3787, 4023, 3981, 3949, 4040
2283, 3767, 3750, 3713, 3743, 4020, 4003, 3966, 3996
2284, 3715, 3697, 3681, 3774, 3968, 3950, 3934, 4027
2285, 3792, 3831, 3817, 3782, 4045, 4084, 4070, 4035
2286, 3745, 3730, 3741, 3753, 3998, 3983, 3994, 4006
2287, 3699, 1027, 1028, 3733, 3952, 1077, 1078, 3986
2288, 3733, 1028, 1029, 3700, 3986, 1078, 1079, 3953
2289, 3731, 3744, 3775, 3682, 3984, 3997, 4028, 3935
2290, 3744, 3763, 3846, 3775, 3997, 4016, 4099, 4028
2291, 3744, 3731, 3740, 3758, 3997, 3984, 3993, 4011
2292, 3702, 1035, 1036, 3729, 3955, 1085, 1086, 3982
2293, 3729, 1036, 1037, 3703, 3982, 1086, 1087, 3956
2294, 3868, 3729, 3703, 3714, 4121, 3982, 3956, 3967
2295, 3743, 3713, 3721, 3776, 3996, 3966, 3974, 4029
2296, 3746, 3727, 3738, 3756, 3999, 3980, 3991, 4009
2297, 3705, 1043, 1044, 3739, 3958, 1093, 1094, 3992
2298, 3902, 3742, 3785, 3913, 4155, 3995, 4038, 4166
2299, 3897, 3720, 3769, 3777, 4150, 3973, 4022, 4030
2300, 3687, 3709, 3901, 3719, 3940, 3962, 4154, 3972
2301, 3684, 3692, 3722, 3893, 3937, 3945, 3975, 4146
2302, 3756, 3766, 3764, 3746, 4009, 4019, 4017, 3999
2303, 3759, 3695, 3728, 3770, 4012, 3948, 3981, 4023
2304, 3714, 3703, 3683, 3773, 3967, 3956, 3936, 4026
2305, 3727, 3746, 3773, 3683, 3980, 3999, 4026, 3936
2306, 3730, 3745, 3774, 3681, 3983, 3998, 4027, 3934
2307, 3801, 3732, 3699, 3895, 4054, 3985, 3952, 4148
2308, 3716, 3700, 3682, 3775, 3969, 3953, 3935, 4028
2309, 3758, 3907, 3763, 3744, 4011, 4160, 4016, 3997
2310, 3717, 3686, 3707, 3752, 3970, 3939, 3960, 4005
2311, 3752, 3897, 3777, 3742, 4005, 4150, 4030, 3995
2312, 3778, 3736, 3705, 3791, 4031, 3989, 3958, 4044
2313, 3777, 3769, 3786, 3912, 4030, 4022, 4039, 4165
2314, 3812, 3759, 3770, 3904, 4065, 4012, 4023, 4157
2315, 3750, 3767, 3797, 3781, 4003, 4020, 4050, 4034
2316, 3760, 3818, 3887, 3722, 4013, 4071, 4140, 3975
2317, 3724, 3711, 3690, 3808, 3977, 3964, 3943, 4061
2318, 3916, 3825, 3849, 3915, 4169, 4078, 4102, 4168
2319, 3738, 1040, 1041, 3704, 3991, 1090, 1091, 3957
2320, 3741, 1024, 1025, 3698, 3994, 1074, 1075, 3951
2321, 3740, 1032, 1033, 3701, 3993, 1082, 1083, 3954
2322, 3891, 1020, 1021, 3697, 4144, 1070, 1071, 3950
2323, 3756, 3738, 3704, 3754, 4009, 3991, 3957, 4007
2324, 3892, 1045, 1046, 3706, 4145, 1095, 1096, 3959
2325, 3758, 3740, 3701, 3757, 4011, 3993, 3954, 4010
2326, 3753, 3741, 3698, 3748, 4006, 3994, 3951, 4001
2327, 3776, 3721, 3759, 3812, 4029, 3974, 4012, 4065
2328, 3906, 3774, 3745, 3762, 4159, 4027, 3998, 4015
2329, 3774, 3906, 3790, 3715, 4027, 4159, 4043, 3968
2330, 3748, 3698, 3732, 3801, 4001, 3951, 3985, 4054
2331, 3773, 3909, 3809, 3714, 4026, 4162, 4062, 3967
2332, 3754, 3704, 3736, 3778, 4007, 3957, 3989, 4031
2333, 3909, 3793, 3822, 3809, 4162, 4046, 4075, 4062
2334, 3788, 3748, 3801, 3815, 4041, 4001, 4054, 4068
2335, 3775, 3846, 3768, 3716, 4028, 4099, 4021, 3969
2336, 3749, 3908, 3761, 3757, 4002, 4161, 4014, 4010
2337, 3734, 3749, 3757, 3701, 3987, 4002, 4010, 3954
2338, 3693, 3726, 3750, 3781, 3946, 3979, 4003, 4034
2339, 3910, 3791, 3903, 3772, 4163, 4044, 4156, 4025
2340, 3764, 3779, 3793, 3909, 4017, 4032, 4046, 4162
2341, 3737, 3755, 3787, 3696, 3990, 4008, 4040, 3949
2342, 3902, 3772, 3718, 3717, 4155, 4025, 3971, 3970
2343, 3757, 3761, 3907, 3758, 4010, 4014, 4160, 4011
2344, 3743, 3784, 3782, 3767, 3996, 4037, 4035, 4020
2345, 3792, 3782, 3784, 3819, 4045, 4035, 4037, 4072
2346, 3765, 3753, 3748, 3788, 4018, 4006, 4001, 4041
2347, 3857, 3833, 3851, 3853, 4110, 4086, 4104, 4106
2348, 3766, 3756, 3754, 3850, 4019, 4009, 4007, 4103
2349, 3764, 3766, 3794, 3779, 4017, 4019, 4047, 4032
2350, 3797, 3767, 3782, 3817, 4050, 4020, 4035, 4070
2351, 3922, 3820, 3822, 3793, 4175, 4073, 4075, 4046
2352, 3806, 3899, 3900, 3901, 4059, 4152, 4153, 4154
2353, 3802, 3811, 3812, 3904, 4055, 4064, 4065, 4157
2354, 3834, 3799, 3811, 3917, 4087, 4052, 4064, 4170
2355, 3771, 3755, 3894, 3905, 4024, 4008, 4147, 4158
2356, 3903, 3896, 3718, 3772, 4156, 4149, 3971, 4025
2357, 3799, 3776, 3812, 3811, 4052, 4029, 4065, 4064
2358, 3717, 3752, 3742, 3902, 3970, 4005, 3995, 4155
2359, 3783, 3778, 3791, 3910, 4036, 4031, 4044, 4163
2360, 3850, 3783, 3798, 3828, 4103, 4036, 4051, 4081
2361, 3859, 3872, 3879, 3857, 4112, 4125, 4132, 4110
2362, 3919, 3790, 3906, 3803, 4172, 4043, 4159, 4056
2363, 3780, 3762, 3765, 3920, 4033, 4015, 4018, 4173
2364, 3781, 3797, 3818, 3760, 4034, 4050, 4071, 4013
2365, 3784, 3743, 3776, 3799, 4037, 3996, 4029, 4052
2366, 3913, 3798, 3772, 3902, 4166, 4051, 4025, 4155
2367, 3819, 3784, 3799, 3834, 4072, 4037, 4052, 4087
2368, 3912, 3786, 3837, 3830, 4165, 4039, 4090, 4083
2369, 3912, 3785, 3742, 3777, 4165, 4038, 3995, 4030
2370, 3769, 3789, 3805, 3786, 4022, 4042, 4058, 4039
2371, 3821, 3911, 3800, 3898, 4074, 4164, 4053, 4151
2372, 3755, 3771, 3802, 3787, 4008, 4024, 4055, 4040
2373, 3789, 3769, 3720, 3900, 4042, 4022, 3973, 4153
2374, 3916, 3848, 3810, 3825, 4169, 4101, 4063, 4078
2375, 3762, 3780, 3803, 3906, 4015, 4033, 4056, 4159
2376, 3905, 3790, 3919, 3796, 4158, 4043, 4172, 4049
2377, 3791, 3705, 3739, 3903, 4044, 3958, 3992, 4156
2378, 3837, 3827, 3914, 3843, 4090, 4080, 4167, 4096
2379, 3816, 3828, 3798, 3913, 4069, 4081, 4051, 4166
2380, 3768, 3823, 3829, 3815, 4021, 4076, 4082, 4068
2381, 3905, 3796, 3917, 3771, 4158, 4049, 4170, 4024
2382, 3919, 3814, 3824, 3796, 4172, 4067, 4077, 4049
2383, 3804, 3887, 3845, 3847, 4057, 4140, 4098, 4100
2384, 3798, 3783, 3910, 3772, 4051, 4036, 4163, 4025
2385, 3811, 3802, 3771, 3917, 4064, 4055, 4024, 4170
2386, 3810, 3848, 3724, 3808, 4063, 4101, 3977, 4061
2387, 3895, 3699, 3733, 3751, 4148, 3952, 3986, 4004
2388, 3751, 3815, 3801, 3895, 4004, 4068, 4054, 4148
2389, 3926, 3803, 3780, 3920, 4179, 4056, 4033, 4173
2390, 3808, 3712, 3836, 3810, 4061, 3965, 4089, 4063
2391, 3712, 3893, 3804, 3836, 3965, 4146, 4057, 4089
2392, 3839, 3929, 3928, 3813, 4092, 4182, 4181, 4066
2393, 3898, 3800, 3723, 3807, 4151, 4053, 3976, 4060
2394, 3909, 3773, 3746, 3764, 4162, 4026, 3999, 4017
2395, 3849, 3858, 3863, 3914, 4102, 4111, 4116, 4167
2396, 3813, 3779, 3794, 3828, 4066, 4032, 4047, 4081
2397, 3828, 3816, 3839, 3813, 4081, 4069, 4092, 4066
2398, 3831, 3792, 3833, 3852, 4084, 4045, 4086, 4105
2399, 3815, 3829, 3795, 3788, 4068, 4082, 4048, 4041
2400, 3925, 3862, 3921, 3874, 4178, 4115, 4174, 4127
2401, 3823, 3768, 3846, 3862, 4076, 4021, 4099, 4115
2402, 3785, 3912, 3830, 3918, 4038, 4165, 4083, 4171
2403, 3827, 3837, 3786, 3805, 4080, 4090, 4039, 4058
2404, 3832, 3818, 3797, 3817, 4085, 4071, 4050, 4070
2405, 3841, 3825, 3810, 3836, 4094, 4078, 4063, 4089
2406, 3834, 3824, 3851, 3819, 4087, 4077, 4104, 4072
2407, 3835, 3865, 3820, 3928, 4088, 4118, 4073, 4181
2408, 3922, 3793, 3779, 3813, 4175, 4046, 4032, 4066
2409, 3723, 3800, 3899, 3806, 3976, 4053, 4152, 4059
2410, 3840, 3747, 3868, 3826, 4093, 4000, 4121, 4079
2411, 3840, 3867, 3761, 3908, 4093, 4120, 4014, 4161
2412, 3824, 3834, 3917, 3796, 4077, 4087, 4170, 4049
2413, 3920, 3795, 3855, 3926, 4173, 4048, 4108, 4179
2414, 3836, 3804, 3847, 3841, 4089, 4057, 4100, 4094
2415, 3714, 3809, 3826, 3868, 3967, 4062, 4079, 4121
2416, 3854, 3856, 3882, 3869, 4107, 4109, 4135, 4122
2417, 3805, 3911, 3915, 3827, 4058, 4164, 4168, 4080
2418, 3850, 3828, 3794, 3766, 4103, 4081, 4047, 4019
2419, 3918, 3830, 3842, 3854, 4171, 4083, 4095, 4107
2420, 3833, 3792, 3819, 3851, 4086, 4045, 4072, 4104
2421, 3838, 3932, 3855, 3927, 4091, 4185, 4108, 4180
2422, 3817, 3831, 3844, 3832, 4070, 4084, 4097, 4085
2423, 3818, 3832, 3845, 3887, 4071, 4085, 4098, 4140
2424, 3838, 3853, 3814, 3932, 4091, 4106, 4067, 4185
2425, 3928, 3820, 3922, 3813, 4181, 4073, 4175, 4066
2426, 3856, 3854, 3842, 3924, 4109, 4107, 4095, 4177
2427, 3829, 3927, 3855, 3795, 4082, 4180, 4108, 4048
2428, 3816, 3918, 3854, 3839, 4069, 4171, 4107, 4092
2429, 3830, 3837, 3843, 3842, 4083, 4090, 4096, 4095
2430, 3861, 3822, 3820, 3865, 4114, 4075, 4073, 4118
2431, 3886, 3845, 3832, 3844, 4139, 4098, 4085, 4097
2432, 3849, 3825, 3841, 3858, 4102, 4078, 4094, 4111
2433, 3877, 3876, 3864, 3852, 4130, 4129, 4117, 4105
2434, 3831, 3852, 3864, 3844, 4084, 4105, 4117, 4097
2435, 3722, 3887, 3804, 3893, 3975, 4140, 4057, 4146
2436, 3862, 3846, 3763, 3921, 4115, 4099, 4016, 4174
2437, 3871, 3858, 3841, 3847, 4124, 4111, 4094, 4100
2438, 3898, 3848, 3916, 3821, 4151, 4101, 4169, 4074
2439, 3807, 3724, 3848, 3898, 4060, 3977, 4101, 4151
2440, 3915, 3849, 3914, 3827, 4168, 4102, 4167, 4080
2441, 3853, 3851, 3824, 3814, 4106, 4104, 4077, 4067
2442, 3859, 3857, 3853, 3838, 4112, 4110, 4106, 4091
2443, 3877, 3852, 3879, 3880, 4130, 4105, 4132, 4133
2444, 3932, 3814, 3926, 3855, 4185, 4067, 4179, 4108
2445, 3839, 3854, 3869, 3929, 4092, 4107, 4122, 4182
2446, 3833, 3857, 3879, 3852, 4086, 4110, 4132, 4105
2447, 3858, 3871, 3881, 3863, 4111, 4124, 4134, 4116
2448, 3872, 3883, 3880, 3879, 4125, 4136, 4133, 4132
2449, 3872, 3930, 3878, 3883, 4125, 4183, 4131, 4136
2450, 3888, 3884, 3865, 3835, 4141, 4137, 4118, 4088
2451, 3840, 3826, 3861, 3867, 4093, 4079, 4114, 4120
2452, 3823, 3862, 3925, 3829, 4076, 4115, 4178, 4082
2453, 3761, 3867, 3889, 3907, 4014, 4120, 4142, 4160
2454, 3873, 3843, 3914, 3863, 4126, 4096, 4167, 4116
2455, 3931, 3835, 3928, 3929, 4184, 4088, 4181, 4182
2456, 3875, 3888, 3835, 3931, 4128, 4141, 4088, 4184
2457, 3866, 3859, 3838, 3927, 4119, 4112, 4091, 4180
2458, 3867, 3861, 3870, 3889, 4120, 4114, 4123, 4142
2459, 3874, 3870, 3884, 3860, 4127, 4123, 4137, 4113
2460, 3870, 3861, 3865, 3884, 4123, 4114, 4118, 4137
2461, 3871, 3886, 3876, 3881, 4124, 4139, 4129, 4134
2462, 3886, 3871, 3847, 3845, 4139, 4124, 4100, 4098
2463, 3877, 3880, 3923, 3882, 4130, 4133, 4176, 4135
2464, 3859, 3866, 3930, 3872, 4112, 4119, 4183, 4125
2465, 3924, 3873, 3885, 3856, 4177, 4126, 4138, 4109
2466, 3860, 3933, 3925, 3874, 4113, 4186, 4178, 4127
2467, 3890, 3883, 3875, 3931, 4143, 4136, 4128, 4184
2468, 3844, 3864, 3876, 3886, 4097, 4117, 4129, 4139
2469, 3885, 3881, 3876, 3877, 4138, 4134, 4129, 4130
2470, 3878, 3860, 3884, 3888, 4131, 4113, 4137, 4141
2471, 3880, 3883, 3890, 3923, 4133, 4136, 4143, 4176
2472, 3873, 3863, 3881, 3885, 4126, 4116, 4134, 4138
2473, 3883, 3878, 3888, 3875, 4136, 4131, 4141, 4128
2474, 3931, 3929, 3869, 3890, 4184, 4182, 4122, 4143
2475, 3885, 3877, 3882, 3856, 4138, 4130, 4135, 4109
2476, 3921, 3889, 3870, 3874, 4174, 4142, 4123, 4127
2477, 3907, 3889, 3921, 3763, 4160, 4142, 4174, 4016
2478, 3882, 3923, 3890, 3869, 4135, 4176, 4143, 4122
2479, 3894, 3891, 3697, 3715, 4147, 4144, 3950, 3968
2480, 3896, 3892, 3706, 3718, 4149, 4145, 3959, 3971
2481, 3905, 3894, 3715, 3790, 4158, 4147, 3968, 4043
2482, 3897, 3735, 3708, 3720, 4150, 3988, 3961, 3973
2483, 3899, 3800, 3789, 3900, 4152, 4053, 4042, 4153
2484, 3904, 3770, 3787, 3802, 4157, 4023, 4040, 4055
2485, 3908, 3749, 3747, 3840, 4161, 4002, 4000, 4093
2486, 3911, 3805, 3789, 3800, 4164, 4058, 4042, 4053
2487, 3913, 3785, 3918, 3816, 4166, 4038, 4171, 4069
2488, 3916, 3915, 3911, 3821, 4169, 4168, 4164, 4074
2489, 3919, 3803, 3926, 3814, 4172, 4056, 4179, 4067
2490, 3924, 3842, 3843, 3873, 4177, 4095, 4096, 4126
2491, 3933, 3927, 3829, 3925, 4186, 4180, 4082, 4178
2492, 3860, 3878, 3930, 3933, 4113, 4131, 4183, 4186
2493, 3933, 3930, 3866, 3927, 4186, 4183, 4119, 4180
2494, 1066, 3948, 3938, 1065, 1116, 4201, 4191, 1115
2495, 4144, 4147, 4008, 3990, 4397, 4400, 4261, 4243
2496, 3934, 1072, 1073, 3983, 4187, 1122, 1123, 4236
2497, 3951, 1075, 1076, 3985, 4204, 1125, 1126, 4238
2498, 4021, 4068, 4004, 3969, 4274, 4321, 4257, 4222
2499, 1080, 3935, 3953, 1079, 1130, 4188, 4206, 1129
2500, 4015, 3998, 4006, 4018, 4268, 4251, 4259, 4271
2501, 3987, 1084, 1085, 3955, 4240, 1134, 1135, 4208
2502, 3982, 4121, 4000, 3955, 4235, 4374, 4253, 4208
2503, 3936, 1088, 1089, 3980, 4189, 1138, 1139, 4233
2504, 3957, 1091, 1092, 3989, 4210, 1141, 1142, 4242
2505, 4103, 4007, 4031, 4036, 4356, 4260, 4284, 4289
2506, 1097, 3939, 3959, 1096, 1147, 4192, 4212, 1146
2507, 3939, 1097, 1098, 3960, 4192, 1147, 1148, 4213
2508, 3945, 1060, 1061, 3978, 4198, 1110, 1111, 4231
2509, 3946, 1062, 1063, 3979, 4199, 1112, 1113, 4232
2510, 1065, 3938, 3947, 1064, 1115, 4191, 4200, 1114
2511, 3981, 1067, 1068, 3949, 4234, 1117, 1118, 4202
2512, 1101, 3940, 3961, 1100, 1151, 4193, 4214, 1150
2513, 3955, 4000, 4002, 3987, 4208, 4253, 4255, 4240
2514, 3940, 3972, 3973, 3961, 4193, 4225, 4226, 4214
2515, 4005, 3960, 3988, 4150, 4258, 4213, 4241, 4403
2516, 4059, 3941, 3963, 3976, 4312, 4194, 4216, 4229
2517, 1058, 3944, 3943, 1057, 1108, 4197, 4196, 1107
2518, 4004, 3986, 3953, 3969, 4257, 4239, 4206, 4222
2519, 3978, 1061, 1062, 3946, 4231, 1111, 1112, 4199
2520, 3947, 3966, 4003, 3979, 4200, 4219, 4256, 4232
2521, 3978, 4013, 3975, 3945, 4231, 4266, 4228, 4198
2522, 3949, 1068, 1069, 3990, 4202, 1118, 1119, 4243
2523, 1070, 4144, 3990, 1069, 1120, 4397, 4243, 1119
2524, 1072, 3934, 3950, 1071, 1122, 4187, 4203, 1121
2525, 3983, 1073, 1074, 3994, 4236, 1123, 1124, 4247
2526, 3985, 1076, 1077, 3952, 4238, 1126, 1127, 4205
2527, 3935, 1080, 1081, 3984, 4188, 1130, 1131, 4237
2528, 3954, 1083, 1084, 3987, 4207, 1133, 1134, 4240
2529, 4079, 4062, 4075, 4114, 4332, 4315, 4328, 4367
2530, 1088, 3936, 3956, 1087, 1138, 4189, 4209, 1137
2531, 4041, 4048, 4173, 4018, 4294, 4301, 4426, 4271
2532, 3989, 1092, 1093, 3958, 4242, 1142, 1143, 4211
2533, 1095, 4145, 3992, 1094, 1145, 4398, 4245, 1144
2534, 4145, 4149, 4156, 3992, 4398, 4402, 4409, 4245
2535, 3971, 3959, 3939, 3970, 4224, 4212, 4192, 4223
2536, 3940, 1101, 1102, 3962, 4193, 1151, 1152, 4215
2537, 3962, 1102, 1103, 3941, 4215, 1152, 1153, 4194
2538, 3963, 1104, 1105, 3942, 4216, 1154, 1155, 4195
2539, 4153, 3973, 3972, 4154, 4406, 4226, 4225, 4407
2540, 3965, 4061, 3943, 3944, 4218, 4314, 4196, 4197
2541, 3984, 1081, 1082, 3993, 4237, 1131, 1132, 4246
2542, 3980, 1089, 1090, 3991, 4233, 1139, 1140, 4244
2543, 1059, 3937, 3944, 1058, 1109, 4190, 4197, 1108
2544, 3937, 1059, 1060, 3945, 4190, 1109, 1110, 4198
2545, 3948, 1066, 1067, 3981, 4201, 1116, 1117, 4234
2546, 3974, 3938, 3948, 4012, 4227, 4191, 4201, 4265
2547, 3960, 1098, 1099, 3988, 4213, 1148, 1149, 4241
2548, 3988, 1099, 1100, 3961, 4241, 1149, 1150, 4214
2549, 3941, 1103, 1104, 3963, 4194, 1153, 1154, 4216
2550, 4154, 3962, 3941, 4059, 4407, 4215, 4194, 4312
2551, 3942, 1105, 1106, 3964, 4195, 1155, 1156, 4217
2552, 3976, 3963, 3942, 4060, 4229, 4216, 4195, 4313
2553, 3964, 1106, 1057, 3943, 4217, 1156, 1107, 4196
2554, 4060, 3942, 3964, 3977, 4313, 4195, 4217, 4230
2555, 3944, 3937, 4146, 3965, 4197, 4190, 4399, 4218
2556, 4013, 3978, 3946, 4034, 4266, 4231, 4199, 4287
2557, 3979, 1063, 1064, 3947, 4232, 1113, 1114, 4200
2558, 3966, 3947, 3938, 3974, 4219, 4200, 4191, 4227
2559, 4023, 3981, 3949, 4040, 4276, 4234, 4202, 4293
2560, 4020, 4003, 3966, 3996, 4273, 4256, 4219, 4249
2561, 3968, 3950, 3934, 4027, 4221, 4203, 4187, 4280
2562, 4045, 4084, 4070, 4035, 4298, 4337, 4323, 4288
2563, 3998, 3983, 3994, 4006, 4251, 4236, 4247, 4259
2564, 3952, 1077, 1078, 3986, 4205, 1127, 1128, 4239
2565, 3986, 1078, 1079, 3953, 4239, 1128, 1129, 4206
2566, 3984, 3997, 4028, 3935, 4237, 4250, 4281, 4188
2567, 3997, 4016, 4099, 4028, 4250, 4269, 4352, 4281
2568, 3997, 3984, 3993, 4011, 4250, 4237, 4246, 4264
2569, 3955, 1085, 1086, 3982, 4208, 1135, 1136, 4235
2570, 3982, 1086, 1087, 3956, 4235, 1136, 1137, 4209
2571, 4121, 3982, 3956, 3967, 4374, 4235, 4209, 4220
2572, 3996, 3966, 3974, 4029, 4249, 4219, 4227, 4282
2573, 3999, 3980, 3991, 4009, 4252, 4233, 4244, 4262
2574, 3958, 1093, 1094, 3992, 4211, 1143, 1144, 4245
2575, 4155, 3995, 4038, 4166, 4408, 4248, 4291, 4419
2576, 4150, 3973, 4022, 4030, 4403, 4226, 4275, 4283
2577, 3940, 3962, 4154, 3972, 4193, 4215, 4407, 4225
2578, 3937, 3945, 3975, 4146, 4190, 4198, 4228, 4399
2579, 4009, 4019, 4017, 3999, 4262, 4272, 4270, 4252
2580, 4012, 3948, 3981, 4023, 4265, 4201, 4234, 4276
2581, 3967, 3956, 3936, 4026, 4220, 4209, 4189, 4279
2582, 3980, 3999, 4026, 3936, 4233, 4252, 4279, 4189
2583, 3983, 3998, 4027, 3934, 4236, 4251, 4280, 4187
2584, 4054, 3985, 3952, 4148, 4307, 4238, 4205, 4401
2585, 3969, 3953, 3935, 4028, 4222, 4206, 4188, 4281
2586, 4011, 4160, 4016, 3997, 4264, 4413, 4269, 4250
2587, 3970, 3939, 3960, 4005, 4223, 4192, 4213, 4258
2588, 4005, 4150, 4030, 3995, 4258, 4403, 4283, 4248
2589, 4031, 3989, 3958, 4044, 4284, 4242, 4211, 4297
2590, 4030, 4022, 4039, 4165, 4283, 4275, 4292, 4418
2591, 4065, 4012, 4023, 4157, 4318, 4265, 4276, 4410
2592, 4003, 4020, 4050, 4034, 4256, 4273, 4303, 4287
2593, 4013, 4071, 4140, 3975, 4266, 4324, 4393, 4228
2594, 3977, 3964, 3943, 4061, 4230, 4217, 4196, 4314
2595, 4169, 4078, 4102, 4168, 4422, 4331, 4355, 4421
2596, 3991, 1090, 1091, 3957, 4244, 1140, 1141, 4210
2597, 3994, 1074, 1075, 3951, 4247, 1124, 1125, 4204
2598, 3993, 1082, 1083, 3954, 4246, 1132, 1133, 4207
2599, 4144, 1070, 1071, 3950, 4397, 1120, 1121, 4203
2600, 4009, 3991, 3957, 4007, 4262, 4244, 4210, 4260
2601, 4145, 1095, 1096, 3959, 4398, 1145, 1146, 4212
2602, 4011, 3993, 3954, 4010, 4264, 4246, 4207, 4263
2603, 4006, 3994, 3951, 4001, 4259, 4247, 4204, 4254
2604, 4029, 3974, 4012, 4065, 4282, 4227, 4265, 4318
2605, 4159, 4027, 3998, 4015, 4412, 4280, 4251, 4268
2606, 4027, 4159, 4043, 3968, 4280, 4412, 4296, 4221
2607, 4001, 3951, 3985, 4054, 4254, 4204, 4238, 4307
2608, 4026, 4162, 4062, 3967, 4279, 4415, 4315, 4220
2609, 4007, 3957, 3989, 4031, 4260, 4210, 4242, 4284
2610, 4162, 4046, 4075, 4062, 4415, 4299, 4328, 4315
2611, 4041, 4001, 4054, 4068, 4294, 4254, 4307, 4321
2612, 4028, 4099, 4021, 3969, 4281, 4352, 4274, 4222
2613, 4002, 4161, 4014, 4010, 4255, 4414, 4267, 4263
2614, 3987, 4002, 4010, 3954, 4240, 4255, 4263, 4207
2615, 3946, 3979, 4003, 4034, 4199, 4232, 4256, 4287
2616, 4163, 4044, 4156, 4025, 4416, 4297, 4409, 4278
2617, 4017, 4032, 4046, 4162, 4270, 4285, 4299, 4415
2618, 3990, 4008, 4040, 3949, 4243, 4261, 4293, 4202
2619, 4155, 4025, 3971, 3970, 4408, 4278, 4224, 4223
2620, 4010, 4014, 4160, 4011, 4263, 4267, 4413, 4264
2621, 3996, 4037, 4035, 4020, 4249, 4290, 4288, 4273
2622, 4045, 4035, 4037, 4072, 4298, 4288, 4290, 4325
2623, 4018, 4006, 4001, 4041, 4271, 4259, 4254, 4294
2624, 4110, 4086, 4104, 4106, 4363, 4339, 4357, 4359
2625, 4019, 4009, 4007, 4103, 4272, 4262, 4260, 4356
2626, 4017, 4019, 4047, 4032, 4270, 4272, 4300, 4285
2627, 4050, 4020, 4035, 4070, 4303, 4273, 4288, 4323
2628, 4175, 4073, 4075, 4046, 4428, 4326, 4328, 4299
2629, 4059, 4152, 4153, 4154, 4312, 4405, 4406, 4407
2630, 4055, 4064, 4065, 4157, 4308, 4317, 4318, 4410
2631, 4087, 4052, 4064, 4170, 4340, 4305, 4317, 4423
2632, 4024, 4008, 4147, 4158, 4277, 4261, 4400, 4411
2633, 4156, 4149, 3971, 4025, 4409, 4402, 4224, 4278
2634, 4052, 4029, 4065, 4064, 4305, 4282, 4318, 4317
2635, 3970, 4005, 3995, 4155, 4223, 4258, 4248, 4408
2636, 4036, 4031, 4044, 4163, 4289, 4284, 4297, 4416
2637, 4103, 4036, 4051, 4081, 4356, 4289, 4304, 4334
2638, 4112, 4125, 4132, 4110, 4365, 4378, 4385, 4363
2639, 4172, 4043, 4159, 4056, 4425, 4296, 4412, 4309
2640, 4033, 4015, 4018, 4173, 4286, 4268, 4271, 4426
2641, 4034, 4050, 4071, 4013, 4287, 4303, 4324, 4266
2642, 4037, 3996, 4029, 4052, 4290, 4249, 4282, 4305
2643, 4166, 4051, 4025, 4155, 4419, 4304, 4278, 4408
2644, 4072, 4037, 4052, 4087, 4325, 4290, 4305, 4340
2645, 4165, 4039, 4090, 4083, 4418, 4292, 4343, 4336
2646, 4165, 4038, 3995, 4030, 4418, 4291, 4248, 4283
2647, 4022, 4042, 4058, 4039, 4275, 4295, 4311, 4292
2648, 4074, 4164, 4053, 4151, 4327, 4417, 4306, 4404
2649, 4008, 4024, 4055, 4040, 4261, 4277, 4308, 4293
2650, 4042, 4022, 3973, 4153, 4295, 4275, 4226, 4406
2651, 4169, 4101, 4063, 4078, 4422, 4354, 4316, 4331
2652, 4015, 4033, 4056, 4159, 4268, 4286, 4309, 4412
2653, 4158, 4043, 4172, 4049, 4411, 4296, 4425, 4302
2654, 4044, 3958, 3992, 4156, 4297, 4211, 4245, 4409
2655, 4090, 4080, 4167, 4096, 4343, 4333, 4420, 4349
2656, 4069, 4081, 4051, 4166, 4322, 4334, 4304, 4419
2657, 4021, 4076, 4082, 4068, 4274, 4329, 4335, 4321
2658, 4158, 4049, 4170, 4024, 4411, 4302, 4423, 4277
2659, 4172, 4067, 4077, 4049, 4425, 4320, 4330, 4302
2660, 4057, 4140, 4098, 4100, 4310, 4393, 4351, 4353
2661, 4051, 4036, 4163, 4025, 4304, 4289, 4416, 4278
2662, 4064, 4055, 4024, 4170, 4317, 4308, 4277, 4423
2663, 4063, 4101, 3977, 4061, 4316, 4354, 4230, 4314
2664, 4148, 3952, 3986, 4004, 4401, 4205, 4239, 4257
2665, 4004, 4068, 4054, 4148, 4257, 4321, 4307, 4401
2666, 4179, 4056, 4033, 4173, 4432, 4309, 4286, 4426
2667, 4061, 3965, 4089, 4063, 4314, 4218, 4342, 4316
2668, 3965, 4146, 4057, 4089, 4218, 4399, 4310, 4342
2669, 4092, 4182, 4181, 4066, 4345, 4435, 4434, 4319
2670, 4151, 4053, 3976, 4060, 4404, 4306, 4229, 4313
2671, 4162, 4026, 3999, 4017, 4415, 4279, 4252, 4270
2672, 4102, 4111, 4116, 4167, 4355, 4364, 4369, 4420
2673, 4066, 4032, 4047, 4081, 4319, 4285, 4300, 4334
2674, 4081, 4069, 4092, 4066, 4334, 4322, 4345, 4319
2675, 4084, 4045, 4086, 4105, 4337, 4298, 4339, 4358
2676, 4068, 4082, 4048, 4041, 4321, 4335, 4301, 4294
2677, 4178, 4115, 4174, 4127, 4431, 4368, 4427, 4380
2678, 4076, 4021, 4099, 4115, 4329, 4274, 4352, 4368
2679, 4038, 4165, 4083, 4171, 4291, 4418, 4336, 4424
2680, 4080, 4090, 4039, 4058, 4333, 4343, 4292, 4311
2681, 4085, 4071, 4050, 4070, 4338, 4324, 4303, 4323
2682, 4094, 4078, 4063, 4089, 4347, 4331, 4316, 4342
2683, 4087, 4077, 4104, 4072, 4340, 4330, 4357, 4325
2684, 4088, 4118, 4073, 4181, 4341, 4371, 4326, 4434
2685, 4175, 4046, 4032, 4066, 4428, 4299, 4285, 4319
2686, 3976, 4053, 4152, 4059, 4229, 4306, 4405, 4312
2687, 4093, 4000, 4121, 4079, 4346, 4253, 4374, 4332
2688, 4093, 4120, 4014, 4161, 4346, 4373, 4267, 4414
2689, 4077, 4087, 4170, 4049, 4330, 4340, 4423, 4302
2690, 4173, 4048, 4108, 4179, 4426, 4301, 4361, 4432
2691, 4089, 4057, 4100, 4094, 4342, 4310, 4353, 4347
2692, 3967, 4062, 4079, 4121, 4220, 4315, 4332, 4374
2693, 4107, 4109, 4135, 4122, 4360, 4362, 4388, 4375
2694, 4058, 4164, 4168, 4080, 4311, 4417, 4421, 4333
2695, 4103, 4081, 4047, 4019, 4356, 4334, 4300, 4272
2696, 4171, 4083, 4095, 4107, 4424, 4336, 4348, 4360
2697, 4086, 4045, 4072, 4104, 4339, 4298, 4325, 4357
2698, 4091, 4185, 4108, 4180, 4344, 4438, 4361, 4433
2699, 4070, 4084, 4097, 4085, 4323, 4337, 4350, 4338
2700, 4071, 4085, 4098, 4140, 4324, 4338, 4351, 4393
2701, 4091, 4106, 4067, 4185, 4344, 4359, 4320, 4438
2702, 4181, 4073, 4175, 4066, 4434, 4326, 4428, 4319
2703, 4109, 4107, 4095, 4177, 4362, 4360, 4348, 4430
2704, 4082, 4180, 4108, 4048, 4335, 4433, 4361, 4301
2705, 4069, 4171, 4107, 4092, 4322, 4424, 4360, 4345
2706, 4083, 4090, 4096, 4095, 4336, 4343, 4349, 4348
2707, 4114, 4075, 4073, 4118, 4367, 4328, 4326, 4371
2708, 4139, 4098, 4085, 4097, 4392, 4351, 4338, 4350
2709, 4102, 4078, 4094, 4111, 4355, 4331, 4347, 4364
2710, 4130, 4129, 4117, 4105, 4383, 4382, 4370, 4358
2711, 4084, 4105, 4117, 4097, 4337, 4358, 4370, 4350
2712, 3975, 4140, 4057, 4146, 4228, 4393, 4310, 4399
2713, 4115, 4099, 4016, 4174, 4368, 4352, 4269, 4427
2714, 4124, 4111, 4094, 4100, 4377, 4364, 4347, 4353
2715, 4151, 4101, 4169, 4074, 4404, 4354, 4422, 4327
2716, 4060, 3977, 4101, 4151, 4313, 4230, 4354, 4404
2717, 4168, 4102, 4167, 4080, 4421, 4355, 4420, 4333
2718, 4106, 4104, 4077, 4067, 4359, 4357, 4330, 4320
2719, 4112, 4110, 4106, 4091, 4365, 4363, 4359, 4344
2720, 4130, 4105, 4132, 4133, 4383, 4358, 4385, 4386
2721, 4185, 4067, 4179, 4108, 4438, 4320, 4432, 4361
2722, 4092, 4107, 4122, 4182, 4345, 4360, 4375, 4435
2723, 4086, 4110, 4132, 4105, 4339, 4363, 4385, 4358
2724, 4111, 4124, 4134, 4116, 4364, 4377, 4387, 4369
2725, 4125, 4136, 4133, 4132, 4378, 4389, 4386, 4385
2726, 4125, 4183, 4131, 4136, 4378, 4436, 4384, 4389
2727, 4141, 4137, 4118, 4088, 4394, 4390, 4371, 4341
2728, 4093, 4079, 4114, 4120, 4346, 4332, 4367, 4373
2729, 4076, 4115, 4178, 4082, 4329, 4368, 4431, 4335
2730, 4014, 4120, 4142, 4160, 4267, 4373, 4395, 4413
2731, 4126, 4096, 4167, 4116, 4379, 4349, 4420, 4369
2732, 4184, 4088, 4181, 4182, 4437, 4341, 4434, 4435
2733, 4128, 4141, 4088, 4184, 4381, 4394, 4341, 4437
2734, 4119, 4112, 4091, 4180, 4372, 4365, 4344, 4433
2735, 4120, 4114, 4123, 4142, 4373, 4367, 4376, 4395
2736, 4127, 4123, 4137, 4113, 4380, 4376, 4390, 4366
2737, 4123, 4114, 4118, 4137, 4376, 4367, 4371, 4390
2738, 4124, 4139, 4129, 4134, 4377, 4392, 4382, 4387
2739, 4139, 4124, 4100, 4098, 4392, 4377, 4353, 4351
2740, 4130, 4133, 4176, 4135, 4383, 4386, 4429, 4388
2741, 4112, 4119, 4183, 4125, 4365, 4372, 4436, 4378
2742, 4177, 4126, 4138, 4109, 4430, 4379, 4391, 4362
2743, 4113, 4186, 4178, 4127, 4366, 4439, 4431, 4380
2744, 4143, 4136, 4128, 4184, 4396, 4389, 4381, 4437
2745, 4097, 4117, 4129, 4139, 4350, 4370, 4382, 4392
2746, 4138, 4134, 4129, 4130, 4391, 4387, 4382, 4383
2747, 4131, 4113, 4137, 4141, 4384, 4366, 4390, 4394
2748, 4133, 4136, 4143, 4176, 4386, 4389, 4396, 4429
2749, 4126, 4116, 4134, 4138, 4379, 4369, 4387, 4391
2750, 4136, 4131, 4141, 4128, 4389, 4384, 4394, 4381
2751, 4184, 4182, 4122, 4143, 4437, 4435, 4375, 4396
2752, 4138, 4130, 4135, 4109, 4391, 4383, 4388, 4362
2753, 4174, 4142, 4123, 4127, 4427, 4395, 4376, 4380
2754, 4160, 4142, 4174, 4016, 4413, 4395, 4427, 4269
2755, 4135, 4176, 4143, 4122, 4388, 4429, 4396, 4375
2756, 4147, 4144, 3950, 3968, 4400, 4397, 4203, 4221
2757, 4149, 4145, 3959, 3971, 4402, 4398, 4212, 4224
2758, 4158, 4147, 3968, 4043, 4411, 4400, 4221, 4296
2759, 4150, 3988, 3961, 3973, 4403, 4241, 4214, 4226
2760, 4152, 4053, 4042, 4153, 4405, 4306, 4295, 4406
2761, 4157, 4023, 4040, 4055, 4410, 4276, 4293, 4308
2762, 4161, 4002, 4000, 4093, 4414, 4255, 4253, 4346
2763, 4164, 4058, 4042, 4053, 4417, 4311, 4295, 4306
2764, 4166, 4038, 4171, 4069, 4419, 4291, 4424, 4322
2765, 4169, 4168, 4164, 4074, 4422, 4421, 4417, 4327
2766, 4172, 4056, 4179, 4067, 4425, 4309, 4432, 4320
2767, 4177, 4095, 4096, 4126, 4430, 4348, 4349, 4379
2768, 4186, 4180, 4082, 4178, 4439, 4433, 4335, 4431
2769, 4113, 4131, 4183, 4186, 4366, 4384, 4436, 4439
2770, 4186, 4183, 4119, 4180, 4439, 4436, 4372, 4433
2771, 1116, 4201, 4191, 1115,   93,  418,  408,   94
2772, 4397, 4400, 4261, 4243,  614,  617,  478,  460
2773, 4187, 1122, 1123, 4236,  404,   87,   86,  453
2774, 4204, 1125, 1126, 4238,  421,   84,   83,  455
2775, 4274, 4321, 4257, 4222,  491,  538,  474,  439
2776, 1130, 4188, 4206, 1129,   79,  405,  423,   80
2777, 4268, 4251, 4259, 4271,  485,  468,  476,  488
2778, 4240, 1134, 1135, 4208,  457,   75,   74,  425
2779, 4235, 4374, 4253, 4208,  452,  591,  470,  425
2780, 4189, 1138, 1139, 4233,  406,   71,   70,  450
2781, 4210, 1141, 1142, 4242,  427,   68,   67,  459
2782, 4356, 4260, 4284, 4289,  573,  477,  501,  506
2783, 1147, 4192, 4212, 1146,   62,  409,  429,   63
2784, 4192, 1147, 1148, 4213,  409,   62,   61,  430
2785, 4198, 1110, 1111, 4231,  415,   99,   98,  448
2786, 4199, 1112, 1113, 4232,  416,   97,   96,  449
2787, 1115, 4191, 4200, 1114,   94,  408,  417,   95
2788, 4234, 1117, 1118, 4202,  451,   92,   91,  419
2789, 1151, 4193, 4214, 1150,   58,  410,  431,   59
2790, 4208, 4253, 4255, 4240,  425,  470,  472,  457
2791, 4193, 4225, 4226, 4214,  410,  442,  443,  431
2792, 4258, 4213, 4241, 4403,  475,  430,  458,  620
2793, 4312, 4194, 4216, 4229,  529,  411,  433,  446
2794, 1108, 4197, 4196, 1107,  101,  414,  413,    2
2795, 4257, 4239, 4206, 4222,  474,  456,  423,  439
2796, 4231, 1111, 1112, 4199,  448,   98,   97,  416
2797, 4200, 4219, 4256, 4232,  417,  436,  473,  449
2798, 4231, 4266, 4228, 4198,  448,  483,  445,  415
2799, 4202, 1118, 1119, 4243,  419,   91,   90,  460
2800, 1120, 4397, 4243, 1119,   89,  614,  460,   90
2801, 1122, 4187, 4203, 1121,   87,  404,  420,   88
2802, 4236, 1123, 1124, 4247,  453,   86,   85,  464
2803, 4238, 1126, 1127, 4205,  455,   83,   82,  422
2804, 4188, 1130, 1131, 4237,  405,   79,   78,  454
2805, 4207, 1133, 1134, 4240,  424,   76,   75,  457
2806, 4332, 4315, 4328, 4367,  549,  532,  545,  584
2807, 1138, 4189, 4209, 1137,   71,  406,  426,   72
2808, 4294, 4301, 4426, 4271,  511,  518,  643,  488
2809, 4242, 1142, 1143, 4211,  459,   67,   66,  428
2810, 1145, 4398, 4245, 1144,   64,  615,  462,   65
2811, 4398, 4402, 4409, 4245,  615,  619,  626,  462
2812, 4224, 4212, 4192, 4223,  441,  429,  409,  440
2813, 4193, 1151, 1152, 4215,  410,   58,   57,  432
2814, 4215, 1152, 1153, 4194,  432,   57,   56,  411
2815, 4216, 1154, 1155, 4195,  433,   55,   54,  412
2816, 4406, 4226, 4225, 4407,  623,  443,  442,  624
2817, 4218, 4314, 4196, 4197,  435,  531,  413,  414
2818, 4237, 1131, 1132, 4246,  454,   78,   77,  463
2819, 4233, 1139, 1140, 4244,  450,   70,   69,  461
2820, 1109, 4190, 4197, 1108,  100,  407,  414,  101
2821, 4190, 1109, 1110, 4198,  407,  100,   99,  415
2822, 4201, 1116, 1117, 4234,  418,   93,   92,  451
2823, 4227, 4191, 4201, 4265,  444,  408,  418,  482
2824, 4213, 1148, 1149, 4241,  430,   61,   60,  458
2825, 4241, 1149, 1150, 4214,  458,   60,   59,  431
2826, 4194, 1153, 1154, 4216,  411,   56,   55,  433
2827, 4407, 4215, 4194, 4312,  624,  432,  411,  529
2828, 4195, 1155, 1156, 4217,  412,   54,   53,  434
2829, 4229, 4216, 4195, 4313,  446,  433,  412,  530
2830, 4217, 1156, 1107, 4196,  434,   53,    2,  413
2831, 4313, 4195, 4217, 4230,  530,  412,  434,  447
2832, 4197, 4190, 4399, 4218,  414,  407,  616,  435
2833, 4266, 4231, 4199, 4287,  483,  448,  416,  504
2834, 4232, 1113, 1114, 4200,  449,   96,   95,  417
2835, 4219, 4200, 4191, 4227,  436,  417,  408,  444
2836, 4276, 4234, 4202, 4293,  493,  451,  419,  510
2837, 4273, 4256, 4219, 4249,  490,  473,  436,  466
2838, 4221, 4203, 4187, 4280,  438,  420,  404,  497
2839, 4298, 4337, 4323, 4288,  515,  554,  540,  505
2840, 4251, 4236, 4247, 4259,  468,  453,  464,  476
2841, 4205, 1127, 1128, 4239,  422,   82,   81,  456
2842, 4239, 1128, 1129, 4206,  456,   81,   80,  423
2843, 4237, 4250, 4281, 4188,  454,  467,  498,  405
2844, 4250, 4269, 4352, 4281,  467,  486,  569,  498
2845, 4250, 4237, 4246, 4264,  467,  454,  463,  481
2846, 4208, 1135, 1136, 4235,  425,   74,   73,  452
2847, 4235, 1136, 1137, 4209,  452,   73,   72,  426
2848, 4374, 4235, 4209, 4220,  591,  452,  426,  437
2849, 4249, 4219, 4227, 4282,  466,  436,  444,  499
2850, 4252, 4233, 4244, 4262,  469,  450,  461,  479
2851, 4211, 1143, 1144, 4245,  428,   66,   65,  462
2852, 4408, 4248, 4291, 4419,  625,  465,  508,  636
2853, 4403, 4226, 4275, 4283,  620,  443,  492,  500
2854, 4193, 4215, 4407, 4225,  410,  432,  624,  442
2855, 4190, 4198, 4228, 4399,  407,  415,  445,  616
2856, 4262, 4272, 4270, 4252,  479,  489,  487,  469
2857, 4265, 4201, 4234, 4276,  482,  418,  451,  493
2858, 4220, 4209, 4189, 4279,  437,  426,  406,  496
2859, 4233, 4252, 4279, 4189,  450,  469,  496,  406
2860, 4236, 4251, 4280, 4187,  453,  468,  497,  404
2861, 4307, 4238, 4205, 4401,  524,  455,  422,  618
2862, 4222, 4206, 4188, 4281,  439,  423,  405,  498
2863, 4264, 4413, 4269, 4250,  481,  630,  486,  467
2864, 4223, 4192, 4213, 4258,  440,  409,  430,  475
2865, 4258, 4403, 4283, 4248,  475,  620,  500,  465
2866, 4284, 4242, 4211, 4297,  501,  459,  428,  514
2867, 4283, 4275, 4292, 4418,  500,  492,  509,  635
2868, 4318, 4265, 4276, 4410,  535,  482,  493,  627
2869, 4256, 4273, 4303, 4287,  473,  490,  520,  504
2870, 4266, 4324, 4393, 4228,  483,  541,  610,  445
2871, 4230, 4217, 4196, 4314,  447,  434,  413,  531
2872, 4422, 4331, 4355, 4421,  639,  548,  572,  638
2873, 4244, 1140, 1141, 4210,  461,   69,   68,  427
2874, 4247, 1124, 1125, 4204,  464,   85,   84,  421
2875, 4246, 1132, 1133, 4207,  463,   77,   76,  424
2876, 4397, 1120, 1121, 4203,  614,   89,   88,  420
2877, 4262, 4244, 4210, 4260,  479,  461,  427,  477
2878, 4398, 1145, 1146, 4212,  615,   64,   63,  429
2879, 4264, 4246, 4207, 4263,  481,  463,  424,  480
2880, 4259, 4247, 4204, 4254,  476,  464,  421,  471
2881, 4282, 4227, 4265, 4318,  499,  444,  482,  535
2882, 4412, 4280, 4251, 4268,  629,  497,  468,  485
2883, 4280, 4412, 4296, 4221,  497,  629,  513,  438
2884, 4254, 4204, 4238, 4307,  471,  421,  455,  524
2885, 4279, 4415, 4315, 4220,  496,  632,  532,  437
2886, 4260, 4210, 4242, 4284,  477,  427,  459,  501
2887, 4415, 4299, 4328, 4315,  632,  516,  545,  532
2888, 4294, 4254, 4307, 4321,  511,  471,  524,  538
2889, 4281, 4352, 4274, 4222,  498,  569,  491,  439
2890, 4255, 4414, 4267, 4263,  472,  631,  484,  480
2891, 4240, 4255, 4263, 4207,  457,  472,  480,  424
2892, 4199, 4232, 4256, 4287,  416,  449,  473,  504
2893, 4416, 4297, 4409, 4278,  633,  514,  626,  495
2894, 4270, 4285, 4299, 4415,  487,  502,  516,  632
2895, 4243, 4261, 4293, 4202,  460,  478,  510,  419
2896, 4408, 4278, 4224, 4223,  625,  495,  441,  440
2897, 4263, 4267, 4413, 4264,  480,  484,  630,  481
2898, 4249, 4290, 4288, 4273,  466,  507,  505,  490
2899, 4298, 4288, 4290, 4325,  515,  505,  507,  542
2900, 4271, 4259, 4254, 4294,  488,  476,  471,  511
2901, 4363, 4339, 4357, 4359,  580,  556,  574,  576
2902, 4272, 4262, 4260, 4356,  489,  479,  477,  573
2903, 4270, 4272, 4300, 4285,  487,  489,  517,  502
2904, 4303, 4273, 4288, 4323,  520,  490,  505,  540
2905, 4428, 4326, 4328, 4299,  645,  543,  545,  516
2906, 4312, 4405, 4406, 4407,  529,  622,  623,  624
2907, 4308, 4317, 4318, 4410,  525,  534,  535,  627
2908, 4340, 4305, 4317, 4423,  557,  522,  534,  640
2909, 4277, 4261, 4400, 4411,  494,  478,  617,  628
2910, 4409, 4402, 4224, 4278,  626,  619,  441,  495
2911, 4305, 4282, 4318, 4317,  522,  499,  535,  534
2912, 4223, 4258, 4248, 4408,  440,  475,  465,  625
2913, 4289, 4284, 4297, 4416,  506,  501,  514,  633
2914, 4356, 4289, 4304, 4334,  573,  506,  521,  551
2915, 4365, 4378, 4385, 4363,  582,  595,  602,  580
2916, 4425, 4296, 4412, 4309,  642,  513,  629,  526
2917, 4286, 4268, 4271, 4426,  503,  485,  488,  643
2918, 4287, 4303, 4324, 4266,  504,  520,  541,  483
2919, 4290, 4249, 4282, 4305,  507,  466,  499,  522
2920, 4419, 4304, 4278, 4408,  636,  521,  495,  625
2921, 4325, 4290, 4305, 4340,  542,  507,  522,  557
2922, 4418, 4292, 4343, 4336,  635,  509,  560,  553
2923, 4418, 4291, 4248, 4283,  635,  508,  465,  500
2924, 4275, 4295, 4311, 4292,  492,  512,  528,  509
2925, 4327, 4417, 4306, 4404,  544,  634,  523,  621
2926, 4261, 4277, 4308, 4293,  478,  494,  525,  510
2927, 4295, 4275, 4226, 4406,  512,  492,  443,  623
2928, 4422, 4354, 4316, 4331,  639,  571,  533,  548
2929, 4268, 4286, 4309, 4412,  485,  503,  526,  629
2930, 4411, 4296, 4425, 4302,  628,  513,  642,  519
2931, 4297, 4211, 4245, 4409,  514,  428,  462,  626
2932, 4343, 4333, 4420, 4349,  560,  550,  637,  566
2933, 4322, 4334, 4304, 4419,  539,  551,  521,  636
2934, 4274, 4329, 4335, 4321,  491,  546,  552,  538
2935, 4411, 4302, 4423, 4277,  628,  519,  640,  494
2936, 4425, 4320, 4330, 4302,  642,  537,  547,  519
2937, 4310, 4393, 4351, 4353,  527,  610,  568,  570
2938, 4304, 4289, 4416, 4278,  521,  506,  633,  495
2939, 4317, 4308, 4277, 4423,  534,  525,  494,  640
2940, 4316, 4354, 4230, 4314,  533,  571,  447,  531
2941, 4401, 4205, 4239, 4257,  618,  422,  456,  474
2942, 4257, 4321, 4307, 4401,  474,  538,  524,  618
2943, 4432, 4309, 4286, 4426,  649,  526,  503,  643
2944, 4314, 4218, 4342, 4316,  531,  435,  559,  533
2945, 4218, 4399, 4310, 4342,  435,  616,  527,  559
2946, 4345, 4435, 4434, 4319,  562,  652,  651,  536
2947, 4404, 4306, 4229, 4313,  621,  523,  446,  530
2948, 4415, 4279, 4252, 4270,  632,  496,  469,  487
2949, 4355, 4364, 4369, 4420,  572,  581,  586,  637
2950, 4319, 4285, 4300, 4334,  536,  502,  517,  551
2951, 4334, 4322, 4345, 4319,  551,  539,  562,  536
2952, 4337, 4298, 4339, 4358,  554,  515,  556,  575
2953, 4321, 4335, 4301, 4294,  538,  552,  518,  511
2954, 4431, 4368, 4427, 4380,  648,  585,  644,  597
2955, 4329, 4274, 4352, 4368,  546,  491,  569,  585
2956, 4291, 4418, 4336, 4424,  508,  635,  553,  641
2957, 4333, 4343, 4292, 4311,  550,  560,  509,  528
2958, 4338, 4324, 4303, 4323,  555,  541,  520,  540
2959, 4347, 4331, 4316, 4342,  564,  548,  533,  559
2960, 4340, 4330, 4357, 4325,  557,  547,  574,  542
2961, 4341, 4371, 4326, 4434,  558,  588,  543,  651
2962, 4428, 4299, 4285, 4319,  645,  516,  502,  536
2963, 4229, 4306, 4405, 4312,  446,  523,  622,  529
2964, 4346, 4253, 4374, 4332,  563,  470,  591,  549
2965, 4346, 4373, 4267, 4414,  563,  590,  484,  631
2966, 4330, 4340, 4423, 4302,  547,  557,  640,  519
2967, 4426, 4301, 4361, 4432,  643,  518,  578,  649
2968, 4342, 4310, 4353, 4347,  559,  527,  570,  564
2969, 4220, 4315, 4332, 4374,  437,  532,  549,  591
2970, 4360, 4362, 4388, 4375,  577,  579,  605,  592
2971, 4311, 4417, 4421, 4333,  528,  634,  638,  550
2972, 4356, 4334, 4300, 4272,  573,  551,  517,  489
2973, 4424, 4336, 4348, 4360,  641,  553,  565,  577
2974, 4339, 4298, 4325, 4357,  556,  515,  542,  574
2975, 4344, 4438, 4361, 4433,  561,  655,  578,  650
2976, 4323, 4337, 4350, 4338,  540,  554,  567,  555
2977, 4324, 4338, 4351, 4393,  541,  555,  568,  610
2978, 4344, 4359, 4320, 4438,  561,  576,  537,  655
2979, 4434, 4326, 4428, 4319,  651,  543,  645,  536
2980, 4362, 4360, 4348, 4430,  579,  577,  565,  647
2981, 4335, 4433, 4361, 4301,  552,  650,  578,  518
2982, 4322, 4424, 4360, 4345,  539,  641,  577,  562
2983, 4336, 4343, 4349, 4348,  553,  560,  566,  565
2984, 4367, 4328, 4326, 4371,  584,  545,  543,  588
2985, 4392, 4351, 4338, 4350,  609,  568,  555,  567
2986, 4355, 4331, 4347, 4364,  572,  548,  564,  581
2987, 4383, 4382, 4370, 4358,  600,  599,  587,  575
2988, 4337, 4358, 4370, 4350,  554,  575,  587,  567
2989, 4228, 4393, 4310, 4399,  445,  610,  527,  616
2990, 4368, 4352, 4269, 4427,  585,  569,  486,  644
2991, 4377, 4364, 4347, 4353,  594,  581,  564,  570
2992, 4404, 4354, 4422, 4327,  621,  571,  639,  544
2993, 4313, 4230, 4354, 4404,  530,  447,  571,  621
2994, 4421, 4355, 4420, 4333,  638,  572,  637,  550
2995, 4359, 4357, 4330, 4320,  576,  574,  547,  537
2996, 4365, 4363, 4359, 4344,  582,  580,  576,  561
2997, 4383, 4358, 4385, 4386,  600,  575,  602,  603
2998, 4438, 4320, 4432, 4361,  655,  537,  649,  578
2999, 4345, 4360, 4375, 4435,  562,  577,  592,  652
3000, 4339, 4363, 4385, 4358,  556,  580,  602,  575
3001, 4364, 4377, 4387, 4369,  581,  594,  604,  586
3002, 4378, 4389, 4386, 4385,  595,  606,  603,  602
3003, 4378, 4436, 4384, 4389,  595,  653,  601,  606
3004, 4394, 4390, 4371, 4341,  611,  607,  588,  558
3005, 4346, 4332, 4367, 4373,  563,  549,  584,  590
3006, 4329, 4368, 4431, 4335,  546,  585,  648,  552
3007, 4267, 4373, 4395, 4413,  484,  590,  612,  630
3008, 4379, 4349, 4420, 4369,  596,  566,  637,  586
3009, 4437, 4341, 4434, 4435,  654,  558,  651,  652
3010, 4381, 4394, 4341, 4437,  598,  611,  558,  654
3011, 4372, 4365, 4344, 4433,  589,  582,  561,  650
3012, 4373, 4367, 4376, 4395,  590,  584,  593,  612
3013, 4380, 4376, 4390, 4366,  597,  593,  607,  583
3014, 4376, 4367, 4371, 4390,  593,  584,  588,  607
3015, 4377, 4392, 4382, 4387,  594,  609,  599,  604
3016, 4392, 4377, 4353, 4351,  609,  594,  570,  568
3017, 4383, 4386, 4429, 4388,  600,  603,  646,  605
3018, 4365, 4372, 4436, 4378,  582,  589,  653,  595
3019, 4430, 4379, 4391, 4362,  647,  596,  608,  579
3020, 4366, 4439, 4431, 4380,  583,  656,  648,  597
3021, 4396, 4389, 4381, 4437,  613,  606,  598,  654
3022, 4350, 4370, 4382, 4392,  567,  587,  599,  609
3023, 4391, 4387, 4382, 4383,  608,  604,  599,  600
3024, 4384, 4366, 4390, 4394,  601,  583,  607,  611
3025, 4386, 4389, 4396, 4429,  603,  606,  613,  646
3026, 4379, 4369, 4387, 4391,  596,  586,  604,  608
3027, 4389, 4384, 4394, 4381,  606,  601,  611,  598
3028, 4437, 4435, 4375, 4396,  654,  652,  592,  613
3029, 4391, 4383, 4388, 4362,  608,  600,  605,  579
3030, 4427, 4395, 4376, 4380,  644,  612,  593,  597
3031, 4413, 4395, 4427, 4269,  630,  612,  644,  486
3032, 4388, 4429, 4396, 4375,  605,  646,  613,  592
3033, 4400, 4397, 4203, 4221,  617,  614,  420,  438
3034, 4402, 4398, 4212, 4224,  619,  615,  429,  441
3035, 4411, 4400, 4221, 4296,  628,  617,  438,  513
3036, 4403, 4241, 4214, 4226,  620,  458,  431,  443
3037, 4405, 4306, 4295, 4406,  622,  523,  512,  623
3038, 4410, 4276, 4293, 4308,  627,  493,  510,  525
3039, 4414, 4255, 4253, 4346,  631,  472,  470,  563
3040, 4417, 4311, 4295, 4306,  634,  528,  512,  523
3041, 4419, 4291, 4424, 4322,  636,  508,  641,  539
3042, 4422, 4421, 4417, 4327,  639,  638,  634,  544
3043, 4425, 4309, 4432, 4320,  642,  526,  649,  537
3044, 4430, 4348, 4349, 4379,  647,  565,  566,  596
3045, 4439, 4433, 4335, 4431,  656,  650,  552,  648
3046, 4366, 4384, 4436, 4439,  583,  601,  653,  656
3047, 4439, 4436, 4372, 4433,  656,  653,  589,  650
3048,   12,   11,  155,  165, 1419, 1418, 4444, 4454
3049,  361,  207,  225,  364, 4650, 4496, 4514, 4653
3050,  151,  200,   19,   18, 4440, 4489, 1426, 1425
3051,  168,  202,   22,   21, 4457, 4491, 1429, 1428
3052,  238,  186,  221,  285, 4527, 4475, 4510, 4574
3053,   26,   25,  170,  152, 1433, 1432, 4459, 4441
3054,  232,  235,  223,  215, 4521, 4524, 4512, 4504
3055,  204,  172,   31,   30, 4493, 4461, 1438, 1437
3056,  199,  172,  217,  338, 4488, 4461, 4506, 4627
3057,  153,  197,   35,   34, 4442, 4486, 1442, 1441
3058,  174,  206,   38,   37, 4463, 4495, 1445, 1444
3059,  320,  253,  248,  224, 4609, 4542, 4537, 4513
3060,   43,   42,  176,  156, 1450, 1449, 4465, 4445
3061,  156,  177,   44,   43, 4445, 4466, 1451, 1450
3062,  162,  195,    7,    6, 4451, 4484, 1414, 1413
3063,  163,  196,    9,    8, 4452, 4485, 1416, 1415
3064,   11,   10,  164,  155, 1418, 1417, 4453, 4444
3065,  198,  166,   14,   13, 4487, 4455, 1421, 1420
3066,   47,   46,  178,  157, 1454, 1453, 4467, 4446
3067,  172,  204,  219,  217, 4461, 4493, 4508, 4506
3068,  157,  178,  190,  189, 4446, 4467, 4479, 4478
3069,  222,  367,  205,  177, 4511, 4656, 4494, 4466
3070,  276,  193,  180,  158, 4565, 4482, 4469, 4447
3071,    4,    1,  160,  161, 1411, 1410, 4449, 4450
3072,  221,  186,  170,  203, 4510, 4475, 4459, 4492
3073,  195,  163,    8,    7, 4484, 4452, 1415, 1414
3074,  164,  196,  220,  183, 4453, 4485, 4509, 4472
3075,  195,  162,  192,  230, 4484, 4451, 4481, 4519
3076,  166,  207,   15,   14, 4455, 4496, 1422, 1421
3077,   16,   15,  207,  361, 1423, 1422, 4496, 4650
3078,   18,   17,  167,  151, 1425, 1424, 4456, 4440
3079,  200,  211,   20,   19, 4489, 4500, 1427, 1426
3080,  202,  169,   23,   22, 4491, 4458, 1430, 1429
3081,  152,  201,   27,   26, 4441, 4490, 1434, 1433
3082,  171,  204,   30,   29, 4460, 4493, 1437, 1436
3083,  296,  331,  292,  279, 4585, 4620, 4581, 4568
3084,   34,   33,  173,  153, 1441, 1440, 4462, 4442
3085,  258,  235,  390,  265, 4547, 4524, 4679, 4554
3086,  206,  175,   39,   38, 4495, 4464, 1446, 1445
3087,   41,   40,  209,  362, 1448, 1447, 4498, 4651
3088,  362,  209,  373,  366, 4651, 4498, 4662, 4655
3089,  188,  187,  156,  176, 4477, 4476, 4445, 4465
3090,  157,  179,   48,   47, 4446, 4468, 1455, 1454
3091,  179,  158,   49,   48, 4468, 4447, 1456, 1455
3092,  180,  159,   51,   50, 4469, 4448, 1458, 1457
3093,  370,  371,  189,  190, 4659, 4660, 4478, 4479
3094,  182,  161,  160,  278, 4471, 4450, 4449, 4567
3095,  201,  210,   28,   27, 4490, 4499, 1435, 1434
3096,  197,  208,   36,   35, 4486, 4497, 1443, 1442
3097,    5,    4,  161,  154, 1412, 1411, 4450, 4443
3098,  154,  162,    6,    5, 4443, 4451, 1413, 1412
3099,  165,  198,   13,   12, 4454, 4487, 1420, 1419
3100,  191,  229,  165,  155, 4480, 4518, 4454, 4444
3101,  177,  205,   45,   44, 4466, 4494, 1452, 1451
3102,  205,  178,   46,   45, 4494, 4467, 1453, 1452
3103,  158,  180,   50,   49, 4447, 4469, 1457, 1456
3104,  371,  276,  158,  179, 4660, 4565, 4447, 4468
3105,  159,  181,   52,   51, 4448, 4470, 1459, 1458
3106,  193,  277,  159,  180, 4482, 4566, 4448, 4469
3107,  181,  160,    1,   52, 4470, 4449, 1410, 1459
3108,  277,  194,  181,  159, 4566, 4483, 4470, 4448
3109,  161,  182,  363,  154, 4450, 4471, 4652, 4443
3110,  230,  251,  163,  195, 4519, 4540, 4452, 4484
3111,  196,  164,   10,    9, 4485, 4453, 1417, 1416
3112,  183,  191,  155,  164, 4472, 4480, 4444, 4453
3113,  240,  257,  166,  198, 4529, 4546, 4455, 4487
3114,  237,  213,  183,  220, 4526, 4502, 4472, 4509
3115,  185,  244,  151,  167, 4474, 4533, 4440, 4456
3116,  262,  252,  287,  301, 4551, 4541, 4576, 4590
3117,  215,  223,  211,  200, 4504, 4512, 4500, 4489
3118,  169,  203,   24,   23, 4458, 4492, 1431, 1430
3119,  203,  170,   25,   24, 4492, 4459, 1432, 1431
3120,  201,  152,  245,  214, 4490, 4441, 4534, 4503
3121,  214,  245,  316,  233, 4503, 4534, 4605, 4522
3122,  214,  228,  210,  201, 4503, 4517, 4499, 4490
3123,  172,  199,   32,   31, 4461, 4488, 1439, 1438
3124,  199,  173,   33,   32, 4488, 4462, 1440, 1439
3125,  338,  184,  173,  199, 4627, 4473, 4462, 4488
3126,  213,  246,  191,  183, 4502, 4535, 4480, 4472
3127,  216,  226,  208,  197, 4505, 4515, 4497, 4486
3128,  175,  209,   40,   39, 4464, 4498, 1447, 1446
3129,  372,  383,  255,  212, 4661, 4672, 4544, 4501
3130,  367,  247,  239,  190, 4656, 4536, 4528, 4479
3131,  157,  189,  371,  179, 4446, 4478, 4660, 4468
3132,  154,  363,  192,  162, 4443, 4652, 4481, 4451
3133,  226,  216,  234,  236, 4515, 4505, 4523, 4525
3134,  229,  240,  198,  165, 4518, 4529, 4487, 4454
3135,  184,  243,  153,  173, 4473, 4532, 4442, 4462
3136,  197,  153,  243,  216, 4486, 4442, 4532, 4505
3137,  200,  151,  244,  215, 4489, 4440, 4533, 4504
3138,  271,  365,  169,  202, 4560, 4654, 4458, 4491
3139,  186,  245,  152,  170, 4475, 4534, 4441, 4459
3140,  228,  214,  233,  377, 4517, 4503, 4522, 4666
3141,  187,  222,  177,  156, 4476, 4511, 4466, 4445
3142,  222,  212,  247,  367, 4511, 4501, 4536, 4656
3143,  248,  261,  175,  206, 4537, 4550, 4464, 4495
3144,  247,  382,  256,  239, 4536, 4671, 4545, 4528
3145,  282,  374,  240,  229, 4571, 4663, 4529, 4518
3146,  220,  251,  267,  237, 4509, 4540, 4556, 4526
3147,  230,  192,  357,  288, 4519, 4481, 4646, 4577
3148,  194,  278,  160,  181, 4483, 4567, 4449, 4470
3149,  386,  385,  319,  295, 4675, 4674, 4608, 4584
3150,  208,  174,   37,   36, 4497, 4463, 1444, 1443
3151,  211,  168,   21,   20, 4500, 4457, 1428, 1427
3152,  210,  171,   29,   28, 4499, 4460, 1436, 1435
3153,  361,  167,   17,   16, 4650, 4456, 1424, 1423
3154,  226,  224,  174,  208, 4515, 4513, 4463, 4497
3155,  362,  176,   42,   41, 4651, 4465, 1449, 1448
3156,  228,  227,  171,  210, 4517, 4516, 4460, 4499
3157,  223,  218,  168,  211, 4512, 4507, 4457, 4500
3158,  246,  282,  229,  191, 4535, 4571, 4518, 4480
3159,  376,  232,  215,  244, 4665, 4521, 4504, 4533
3160,  244,  185,  260,  376, 4533, 4474, 4549, 4665
3161,  218,  271,  202,  168, 4507, 4560, 4491, 4457
3162,  243,  184,  279,  379, 4532, 4473, 4568, 4668
3163,  224,  248,  206,  174, 4513, 4537, 4495, 4463
3164,  379,  279,  292,  263, 4668, 4568, 4581, 4552
3165,  258,  285,  271,  218, 4547, 4574, 4560, 4507
3166,  245,  186,  238,  316, 4534, 4475, 4527, 4605
3167,  219,  227,  231,  378, 4508, 4516, 4520, 4667
3168,  204,  171,  227,  219, 4493, 4460, 4516, 4508
3169,  163,  251,  220,  196, 4452, 4540, 4509, 4485
3170,  380,  242,  373,  261, 4669, 4531, 4662, 4550
3171,  234,  379,  263,  249, 4523, 4668, 4552, 4538
3172,  207,  166,  257,  225, 4496, 4455, 4546, 4514
3173,  372,  187,  188,  242, 4661, 4476, 4477, 4531
3174,  227,  228,  377,  231, 4516, 4517, 4666, 4520
3175,  213,  237,  252,  254, 4502, 4526, 4541, 4543
3176,  262,  289,  254,  252, 4551, 4578, 4543, 4541
3177,  235,  258,  218,  223, 4524, 4547, 4507, 4512
3178,  327,  323,  321,  303, 4616, 4612, 4610, 4592
3179,  236,  320,  224,  226, 4525, 4609, 4513, 4515
3180,  234,  249,  264,  236, 4523, 4538, 4553, 4525
3181,  267,  287,  252,  237, 4556, 4576, 4541, 4526
3182,  392,  263,  292,  290, 4681, 4552, 4581, 4579
3183,  276,  371,  370,  369, 4565, 4660, 4659, 4658
3184,  272,  374,  282,  281, 4561, 4663, 4571, 4570
3185,  304,  387,  281,  269, 4593, 4676, 4570, 4558
3186,  241,  375,  364,  225, 4530, 4664, 4653, 4514
3187,  373,  242,  188,  366, 4662, 4531, 4477, 4655
3188,  269,  281,  282,  246, 4558, 4570, 4571, 4535
3189,  187,  372,  212,  222, 4476, 4661, 4501, 4511
3190,  253,  380,  261,  248, 4542, 4669, 4550, 4537
3191,  320,  298,  268,  253, 4609, 4587, 4557, 4542
3192,  329,  327,  349,  342, 4618, 4616, 4638, 4631
3193,  389,  273,  376,  260, 4678, 4562, 4665, 4549
3194,  250,  390,  235,  232, 4539, 4679, 4524, 4521
3195,  251,  230,  288,  267, 4540, 4519, 4577, 4556
3196,  254,  269,  246,  213, 4543, 4558, 4535, 4502
3197,  383,  372,  242,  268, 4672, 4661, 4531, 4557
3198,  289,  304,  269,  254, 4578, 4593, 4558, 4543
3199,  382,  300,  307,  256, 4671, 4589, 4596, 4545
3200,  382,  247,  212,  255, 4671, 4536, 4501, 4544
3201,  239,  256,  275,  259, 4528, 4545, 4564, 4548
3202,  291,  368,  270,  381, 4580, 4657, 4559, 4670
3203,  225,  257,  272,  241, 4514, 4546, 4561, 4530
3204,  259,  370,  190,  239, 4548, 4659, 4479, 4528
3205,  386,  295,  280,  318, 4675, 4584, 4569, 4607
3206,  232,  376,  273,  250, 4521, 4665, 4562, 4539
3207,  375,  266,  389,  260, 4664, 4555, 4678, 4549
3208,  261,  373,  209,  175, 4550, 4662, 4498, 4464
3209,  307,  313,  384,  297, 4596, 4602, 4673, 4586
3210,  286,  383,  268,  298, 4575, 4672, 4557, 4587
3211,  238,  285,  299,  293, 4527, 4574, 4588, 4582
3212,  375,  241,  387,  266, 4664, 4530, 4676, 4555
3213,  389,  266,  294,  284, 4678, 4555, 4583, 4573
3214,  274,  317,  315,  357, 4563, 4606, 4604, 4646
3215,  268,  242,  380,  253, 4557, 4531, 4669, 4542
3216,  281,  387,  241,  272, 4570, 4676, 4530, 4561
3217,  280,  278,  194,  318, 4569, 4567, 4483, 4607
3218,  365,  221,  203,  169, 4654, 4510, 4492, 4458
3219,  221,  365,  271,  285, 4510, 4654, 4560, 4574
3220,  396,  390,  250,  273, 4685, 4679, 4539, 4562
3221,  278,  280,  306,  182, 4567, 4569, 4595, 4471
3222,  182,  306,  274,  363, 4471, 4595, 4563, 4652
3223,  309,  283,  398,  399, 4598, 4572, 4687, 4688
3224,  368,  277,  193,  270, 4657, 4566, 4482, 4559
3225,  379,  234,  216,  243, 4668, 4523, 4505, 4532
3226,  319,  384,  333,  328, 4608, 4673, 4622, 4617
3227,  283,  298,  264,  249, 4572, 4587, 4553, 4538
3228,  298,  283,  309,  286, 4587, 4572, 4598, 4575
3229,  301,  322,  303,  262, 4590, 4611, 4592, 4551
3230,  285,  258,  265,  299, 4574, 4547, 4554, 4588
3231,  395,  344,  391,  332, 4684, 4633, 4680, 4621
3232,  293,  332,  316,  238, 4582, 4621, 4605, 4527
3233,  255,  388,  300,  382, 4544, 4677, 4589, 4671
3234,  297,  275,  256,  307, 4586, 4564, 4545, 4596
3235,  302,  287,  267,  288, 4591, 4576, 4556, 4577
3236,  311,  306,  280,  295, 4600, 4595, 4569, 4584
3237,  304,  289,  321,  294, 4593, 4578, 4610, 4583
3238,  305,  398,  290,  335, 4594, 4687, 4579, 4624
3239,  392,  283,  249,  263, 4681, 4572, 4538, 4552
3240,  193,  276,  369,  270, 4482, 4565, 4658, 4559
3241,  310,  296,  338,  217, 4599, 4585, 4627, 4506
3242,  310,  378,  231,  337, 4599, 4667, 4520, 4626
3243,  294,  266,  387,  304, 4583, 4555, 4676, 4593
3244,  390,  396,  325,  265, 4679, 4685, 4614, 4554
3245,  306,  311,  317,  274, 4595, 4600, 4606, 4563
3246,  184,  338,  296,  279, 4473, 4627, 4585, 4568
3247,  324,  339,  352,  326, 4613, 4628, 4641, 4615
3248,  275,  297,  385,  381, 4564, 4586, 4674, 4670
3249,  320,  236,  264,  298, 4609, 4525, 4553, 4587
3250,  388,  324,  312,  300, 4677, 4613, 4601, 4589
3251,  303,  321,  289,  262, 4592, 4610, 4578, 4551
3252,  308,  397,  325,  402, 4597, 4686, 4614, 4691
3253,  287,  302,  314,  301, 4576, 4591, 4603, 4590
3254,  288,  357,  315,  302, 4577, 4646, 4604, 4591
3255,  308,  402,  284,  323, 4597, 4691, 4573, 4612
3256,  398,  283,  392,  290, 4687, 4572, 4681, 4579
3257,  326,  394,  312,  324, 4615, 4683, 4601, 4613
3258,  299,  265,  325,  397, 4588, 4554, 4614, 4686
3259,  286,  309,  324,  388, 4575, 4598, 4613, 4677
3260,  300,  312,  313,  307, 4589, 4601, 4602, 4596
3261,  331,  335,  290,  292, 4620, 4624, 4579, 4581
3262,  356,  314,  302,  315, 4645, 4603, 4591, 4604
3263,  319,  328,  311,  295, 4608, 4617, 4600, 4584
3264,  347,  322,  334,  346, 4636, 4611, 4623, 4635
3265,  301,  314,  334,  322, 4590, 4603, 4623, 4611
3266,  192,  363,  274,  357, 4481, 4652, 4563, 4646
3267,  332,  391,  233,  316, 4621, 4680, 4522, 4605
3268,  341,  317,  311,  328, 4630, 4606, 4600, 4617
3269,  368,  291,  386,  318, 4657, 4580, 4675, 4607
3270,  277,  368,  318,  194, 4566, 4657, 4607, 4483
3271,  385,  297,  384,  319, 4674, 4586, 4673, 4608
3272,  323,  284,  294,  321, 4612, 4573, 4583, 4610
3273,  329,  308,  323,  327, 4618, 4597, 4612, 4616
3274,  347,  350,  349,  322, 4636, 4639, 4638, 4611
3275,  402,  325,  396,  284, 4691, 4614, 4685, 4573
3276,  309,  399,  339,  324, 4598, 4688, 4628, 4613
3277,  303,  322,  349,  327, 4592, 4611, 4638, 4616
3278,  328,  333,  351,  341, 4617, 4622, 4640, 4630
3279,  342,  349,  350,  353, 4631, 4638, 4639, 4642
3280,  342,  353,  348,  400, 4631, 4642, 4637, 4689
3281,  358,  305,  335,  354, 4647, 4594, 4624, 4643
3282,  310,  337,  331,  296, 4599, 4626, 4620, 4585
3283,  293,  299,  395,  332, 4582, 4588, 4684, 4621
3284,  231,  377,  359,  337, 4520, 4666, 4648, 4626
3285,  343,  333,  384,  313, 4632, 4622, 4673, 4602
3286,  401,  399,  398,  305, 4690, 4688, 4687, 4594
3287,  345,  401,  305,  358, 4634, 4690, 4594, 4647
3288,  336,  397,  308,  329, 4625, 4686, 4597, 4618
3289,  337,  359,  340,  331, 4626, 4648, 4629, 4620
3290,  344,  330,  354,  340, 4633, 4619, 4643, 4629
3291,  340,  354,  335,  331, 4629, 4643, 4624, 4620
3292,  341,  351,  346,  356, 4630, 4640, 4635, 4645
3293,  356,  315,  317,  341, 4645, 4604, 4606, 4630
3294,  347,  352,  393,  350, 4636, 4641, 4682, 4639
3295,  329,  342,  400,  336, 4618, 4631, 4689, 4625
3296,  394,  326,  355,  343, 4683, 4615, 4644, 4632
3297,  330,  344,  395,  403, 4619, 4633, 4684, 4692
3298,  360,  401,  345,  353, 4649, 4690, 4634, 4642
3299,  314,  356,  346,  334, 4603, 4645, 4635, 4623
3300,  355,  347,  346,  351, 4644, 4636, 4635, 4640
3301,  348,  358,  354,  330, 4637, 4647, 4643, 4619
3302,  350,  393,  360,  353, 4639, 4682, 4649, 4642
3303,  343,  355,  351,  333, 4632, 4644, 4640, 4622
3304,  353,  345,  358,  348, 4642, 4634, 4647, 4637
3305,  401,  360,  339,  399, 4690, 4649, 4628, 4688
3306,  355,  326,  352,  347, 4644, 4615, 4641, 4636
3307,  391,  344,  340,  359, 4680, 4633, 4629, 4648
3308,  377,  233,  391,  359, 4666, 4522, 4680, 4648
3309,  352,  339,  360,  393, 4641, 4628, 4649, 4682
3310,  364,  185,  167,  361, 4653, 4474, 4456, 4650
3311,  366,  188,  176,  362, 4655, 4477, 4465, 4651
3312,  375,  260,  185,  364, 4664, 4549, 4474, 4653
3313,  367,  190,  178,  205, 4656, 4479, 4467, 4494
3314,  369,  370,  259,  270, 4658, 4659, 4548, 4559
3315,  374,  272,  257,  240, 4663, 4561, 4546, 4529
3316,  378,  310,  217,  219, 4667, 4599, 4506, 4508
3317,  381,  270,  259,  275, 4670, 4559, 4548, 4564
3318,  383,  286,  388,  255, 4672, 4575, 4677, 4544
3319,  386,  291,  381,  385, 4675, 4580, 4670, 4674
3320,  389,  284,  396,  273, 4678, 4573, 4685, 4562
3321,  394,  343,  313,  312, 4683, 4632, 4602, 4601
3322,  403,  395,  299,  397, 4692, 4684, 4588, 4686
3323,  330,  403,  400,  348, 4619, 4692, 4689, 4637
3324,  403,  397,  336,  400, 4692, 4686, 4625, 4689
3325, 1419, 1418, 4444, 4454, 1469, 1468, 4697, 4707
3326, 4650, 4496, 4514, 4653, 4903, 4749, 4767, 4906
3327, 4440, 4489, 1426, 1425, 4693, 4742, 1476, 1475
3328, 4457, 4491, 1429, 1428, 4710, 4744, 1479, 1478
3329, 4527, 4475, 4510, 4574, 4780, 4728, 4763, 4827
3330, 1433, 1432, 4459, 4441, 1483, 1482, 4712, 4694
3331, 4521, 4524, 4512, 4504, 4774, 4777, 4765, 4757
3332, 4493, 4461, 1438, 1437, 4746, 4714, 1488, 1487
3333, 4488, 4461, 4506, 4627, 4741, 4714, 4759, 4880
3334, 4442, 4486, 1442, 1441, 4695, 4739, 1492, 1491
3335, 4463, 4495, 1445, 1444, 4716, 4748, 1495, 1494
3336, 4609, 4542, 4537, 4513, 4862, 4795, 4790, 4766
3337, 1450, 1449, 4465, 4445, 1500, 1499, 4718, 4698
3338, 4445, 4466, 1451, 1450, 4698, 4719, 1501, 1500
3339, 4451, 4484, 1414, 1413, 4704, 4737, 1464, 1463
3340, 4452, 4485, 1416, 1415, 4705, 4738, 1466, 1465
3341, 1418, 1417, 4453, 4444, 1468, 1467, 4706, 4697
3342, 4487, 4455, 1421, 1420, 4740, 4708, 1471, 1470
3343, 1454, 1453, 4467, 4446, 1504, 1503, 4720, 4699
3344, 4461, 4493, 4508, 4506, 4714, 4746, 4761, 4759
3345, 4446, 4467, 4479, 4478, 4699, 4720, 4732, 4731
3346, 4511, 4656, 4494, 4466, 4764, 4909, 4747, 4719
3347, 4565, 4482, 4469, 4447, 4818, 4735, 4722, 4700
3348, 1411, 1410, 4449, 4450, 1461, 1460, 4702, 4703
3349, 4510, 4475, 4459, 4492, 4763, 4728, 4712, 4745
3350, 4484, 4452, 1415, 1414, 4737, 4705, 1465, 1464
3351, 4453, 4485, 4509, 4472, 4706, 4738, 4762, 4725
3352, 4484, 4451, 4481, 4519, 4737, 4704, 4734, 4772
3353, 4455, 4496, 1422, 1421, 4708, 4749, 1472, 1471
3354, 1423, 1422, 4496, 4650, 1473, 1472, 4749, 4903
3355, 1425, 1424, 4456, 4440, 1475, 1474, 4709, 4693
3356, 4489, 4500, 1427, 1426, 4742, 4753, 1477, 1476
3357, 4491, 4458, 1430, 1429, 4744, 4711, 1480, 1479
3358, 4441, 4490, 1434, 1433, 4694, 4743, 1484, 1483
3359, 4460, 4493, 1437, 1436, 4713, 4746, 1487, 1486
3360, 4585, 4620, 4581, 4568, 4838, 4873, 4834, 4821
3361, 1441, 1440, 4462, 4442, 1491, 1490, 4715, 4695
3362, 4547, 4524, 4679, 4554, 4800, 4777, 4932, 4807
3363, 4495, 4464, 1446, 1445, 4748, 4717, 1496, 1495
3364, 1448, 1447, 4498, 4651, 1498, 1497, 4751, 4904
3365, 4651, 4498, 4662, 4655, 4904, 4751, 4915, 4908
3366, 4477, 4476, 4445, 4465, 4730, 4729, 4698, 4718
3367, 4446, 4468, 1455, 1454, 4699, 4721, 1505, 1504
3368, 4468, 4447, 1456, 1455, 4721, 4700, 1506, 1505
3369, 4469, 4448, 1458, 1457, 4722, 4701, 1508, 1507
3370, 4659, 4660, 4478, 4479, 4912, 4913, 4731, 4732
3371, 4471, 4450, 4449, 4567, 4724, 4703, 4702, 4820
3372, 4490, 4499, 1435, 1434, 4743, 4752, 1485, 1484
3373, 4486, 4497, 1443, 1442, 4739, 4750, 1493, 1492
3374, 1412, 1411, 4450, 4443, 1462, 1461, 4703, 4696
3375, 4443, 4451, 1413, 1412, 4696, 4704, 1463, 1462
3376, 4454, 4487, 1420, 1419, 4707, 4740, 1470, 1469
3377, 4480, 4518, 4454, 4444, 4733, 4771, 4707, 4697
3378, 4466, 4494, 1452, 1451, 4719, 4747, 1502, 1501
3379, 4494, 4467, 1453, 1452, 4747, 4720, 1503, 1502
3380, 4447, 4469, 1457, 1456, 4700, 4722, 1507, 1506
3381, 4660, 4565, 4447, 4468, 4913, 4818, 4700, 4721
3382, 4448, 4470, 1459, 1458, 4701, 4723, 1509, 1508
3383, 4482, 4566, 4448, 4469, 4735, 4819, 4701, 4722
3384, 4470, 4449, 1410, 1459, 4723, 4702, 1460, 1509
3385, 4566, 4483, 4470, 4448, 4819, 4736, 4723, 4701
3386, 4450, 4471, 4652, 4443, 4703, 4724, 4905, 4696
3387, 4519, 4540, 4452, 4484, 4772, 4793, 4705, 4737
3388, 4485, 4453, 1417, 1416, 4738, 4706, 1467, 1466
3389, 4472, 4480, 4444, 4453, 4725, 4733, 4697, 4706
3390, 4529, 4546, 4455, 4487, 4782, 4799, 4708, 4740
3391, 4526, 4502, 4472, 4509, 4779, 4755, 4725, 4762
3392, 4474, 4533, 4440, 4456, 4727, 4786, 4693, 4709
3393, 4551, 4541, 4576, 4590, 4804, 4794, 4829, 4843
3394, 4504, 4512, 4500, 4489, 4757, 4765, 4753, 4742
3395, 4458, 4492, 1431, 1430, 4711, 4745, 1481, 1480
3396, 4492, 4459, 1432, 1431, 4745, 4712, 1482, 1481
3397, 4490, 4441, 4534, 4503, 4743, 4694, 4787, 4756
3398, 4503, 4534, 4605, 4522, 4756, 4787, 4858, 4775
3399, 4503, 4517, 4499, 4490, 4756, 4770, 4752, 4743
3400, 4461, 4488, 1439, 1438, 4714, 4741, 1489, 1488
3401, 4488, 4462, 1440, 1439, 4741, 4715, 1490, 1489
3402, 4627, 4473, 4462, 4488, 4880, 4726, 4715, 4741
3403, 4502, 4535, 4480, 4472, 4755, 4788, 4733, 4725
3404, 4505, 4515, 4497, 4486, 4758, 4768, 4750, 4739
3405, 4464, 4498, 1447, 1446, 4717, 4751, 1497, 1496
3406, 4661, 4672, 4544, 4501, 4914, 4925, 4797, 4754
3407, 4656, 4536, 4528, 4479, 4909, 4789, 4781, 4732
3408, 4446, 4478, 4660, 4468, 4699, 4731, 4913, 4721
3409, 4443, 4652, 4481, 4451, 4696, 4905, 4734, 4704
3410, 4515, 4505, 4523, 4525, 4768, 4758, 4776, 4778
3411, 4518, 4529, 4487, 4454, 4771, 4782, 4740, 4707
3412, 4473, 4532, 4442, 4462, 4726, 4785, 4695, 4715
3413, 4486, 4442, 4532, 4505, 4739, 4695, 4785, 4758
3414, 4489, 4440, 4533, 4504, 4742, 4693, 4786, 4757
3415, 4560, 4654, 4458, 4491, 4813, 4907, 4711, 4744
3416, 4475, 4534, 4441, 4459, 4728, 4787, 4694, 4712
3417, 4517, 4503, 4522, 4666, 4770, 4756, 4775, 4919
3418, 4476, 4511, 4466, 4445, 4729, 4764, 4719, 4698
3419, 4511, 4501, 4536, 4656, 4764, 4754, 4789, 4909
3420, 4537, 4550, 4464, 4495, 4790, 4803, 4717, 4748
3421, 4536, 4671, 4545, 4528, 4789, 4924, 4798, 4781
3422, 4571, 4663, 4529, 4518, 4824, 4916, 4782, 4771
3423, 4509, 4540, 4556, 4526, 4762, 4793, 4809, 4779
3424, 4519, 4481, 4646, 4577, 4772, 4734, 4899, 4830
3425, 4483, 4567, 4449, 4470, 4736, 4820, 4702, 4723
3426, 4675, 4674, 4608, 4584, 4928, 4927, 4861, 4837
3427, 4497, 4463, 1444, 1443, 4750, 4716, 1494, 1493
3428, 4500, 4457, 1428, 1427, 4753, 4710, 1478, 1477
3429, 4499, 4460, 1436, 1435, 4752, 4713, 1486, 1485
3430, 4650, 4456, 1424, 1423, 4903, 4709, 1474, 1473
3431, 4515, 4513, 4463, 4497, 4768, 4766, 4716, 4750
3432, 4651, 4465, 1449, 1448, 4904, 4718, 1499, 1498
3433, 4517, 4516, 4460, 4499, 4770, 4769, 4713, 4752
3434, 4512, 4507, 4457, 4500, 4765, 4760, 4710, 4753
3435, 4535, 4571, 4518, 4480, 4788, 4824, 4771, 4733
3436, 4665, 4521, 4504, 4533, 4918, 4774, 4757, 4786
3437, 4533, 4474, 4549, 4665, 4786, 4727, 4802, 4918
3438, 4507, 4560, 4491, 4457, 4760, 4813, 4744, 4710
3439, 4532, 4473, 4568, 4668, 4785, 4726, 4821, 4921
3440, 4513, 4537, 4495, 4463, 4766, 4790, 4748, 4716
3441, 4668, 4568, 4581, 4552, 4921, 4821, 4834, 4805
3442, 4547, 4574, 4560, 4507, 4800, 4827, 4813, 4760
3443, 4534, 4475, 4527, 4605, 4787, 4728, 4780, 4858
3444, 4508, 4516, 4520, 4667, 4761, 4769, 4773, 4920
3445, 4493, 4460, 4516, 4508, 4746, 4713, 4769, 4761
3446, 4452, 4540, 4509, 4485, 4705, 4793, 4762, 4738
3447, 4669, 4531, 4662, 4550, 4922, 4784, 4915, 4803
3448, 4523, 4668, 4552, 4538, 4776, 4921, 4805, 4791
3449, 4496, 4455, 4546, 4514, 4749, 4708, 4799, 4767
3450, 4661, 4476, 4477, 4531, 4914, 4729, 4730, 4784
3451, 4516, 4517, 4666, 4520, 4769, 4770, 4919, 4773
3452, 4502, 4526, 4541, 4543, 4755, 4779, 4794, 4796
3453, 4551, 4578, 4543, 4541, 4804, 4831, 4796, 4794
3454, 4524, 4547, 4507, 4512, 4777, 4800, 4760, 4765
3455, 4616, 4612, 4610, 4592, 4869, 4865, 4863, 4845
3456, 4525, 4609, 4513, 4515, 4778, 4862, 4766, 4768
3457, 4523, 4538, 4553, 4525, 4776, 4791, 4806, 4778
3458, 4556, 4576, 4541, 4526, 4809, 4829, 4794, 4779
3459, 4681, 4552, 4581, 4579, 4934, 4805, 4834, 4832
3460, 4565, 4660, 4659, 4658, 4818, 4913, 4912, 4911
3461, 4561, 4663, 4571, 4570, 4814, 4916, 4824, 4823
3462, 4593, 4676, 4570, 4558, 4846, 4929, 4823, 4811
3463, 4530, 4664, 4653, 4514, 4783, 4917, 4906, 4767
3464, 4662, 4531, 4477, 4655, 4915, 4784, 4730, 4908
3465, 4558, 4570, 4571, 4535, 4811, 4823, 4824, 4788
3466, 4476, 4661, 4501, 4511, 4729, 4914, 4754, 4764
3467, 4542, 4669, 4550, 4537, 4795, 4922, 4803, 4790
3468, 4609, 4587, 4557, 4542, 4862, 4840, 4810, 4795
3469, 4618, 4616, 4638, 4631, 4871, 4869, 4891, 4884
3470, 4678, 4562, 4665, 4549, 4931, 4815, 4918, 4802
3471, 4539, 4679, 4524, 4521, 4792, 4932, 4777, 4774
3472, 4540, 4519, 4577, 4556, 4793, 4772, 4830, 4809
3473, 4543, 4558, 4535, 4502, 4796, 4811, 4788, 4755
3474, 4672, 4661, 4531, 4557, 4925, 4914, 4784, 4810
3475, 4578, 4593, 4558, 4543, 4831, 4846, 4811, 4796
3476, 4671, 4589, 4596, 4545, 4924, 4842, 4849, 4798
3477, 4671, 4536, 4501, 4544, 4924, 4789, 4754, 4797
3478, 4528, 4545, 4564, 4548, 4781, 4798, 4817, 4801
3479, 4580, 4657, 4559, 4670, 4833, 4910, 4812, 4923
3480, 4514, 4546, 4561, 4530, 4767, 4799, 4814, 4783
3481, 4548, 4659, 4479, 4528, 4801, 4912, 4732, 4781
3482, 4675, 4584, 4569, 4607, 4928, 4837, 4822, 4860
3483, 4521, 4665, 4562, 4539, 4774, 4918, 4815, 4792
3484, 4664, 4555, 4678, 4549, 4917, 4808, 4931, 4802
3485, 4550, 4662, 4498, 4464, 4803, 4915, 4751, 4717
3486, 4596, 4602, 4673, 4586, 4849, 4855, 4926, 4839
3487, 4575, 4672, 4557, 4587, 4828, 4925, 4810, 4840
3488, 4527, 4574, 4588, 4582, 4780, 4827, 4841, 4835
3489, 4664, 4530, 4676, 4555, 4917, 4783, 4929, 4808
3490, 4678, 4555, 4583, 4573, 4931, 4808, 4836, 4826
3491, 4563, 4606, 4604, 4646, 4816, 4859, 4857, 4899
3492, 4557, 4531, 4669, 4542, 4810, 4784, 4922, 4795
3493, 4570, 4676, 4530, 4561, 4823, 4929, 4783, 4814
3494, 4569, 4567, 4483, 4607, 4822, 4820, 4736, 4860
3495, 4654, 4510, 4492, 4458, 4907, 4763, 4745, 4711
3496, 4510, 4654, 4560, 4574, 4763, 4907, 4813, 4827
3497, 4685, 4679, 4539, 4562, 4938, 4932, 4792, 4815
3498, 4567, 4569, 4595, 4471, 4820, 4822, 4848, 4724
3499, 4471, 4595, 4563, 4652, 4724, 4848, 4816, 4905
3500, 4598, 4572, 4687, 4688, 4851, 4825, 4940, 4941
3501, 4657, 4566, 4482, 4559, 4910, 4819, 4735, 4812
3502, 4668, 4523, 4505, 4532, 4921, 4776, 4758, 4785
3503, 4608, 4673, 4622, 4617, 4861, 4926, 4875, 4870
3504, 4572, 4587, 4553, 4538, 4825, 4840, 4806, 4791
3505, 4587, 4572, 4598, 4575, 4840, 4825, 4851, 4828
3506, 4590, 4611, 4592, 4551, 4843, 4864, 4845, 4804
3507, 4574, 4547, 4554, 4588, 4827, 4800, 4807, 4841
3508, 4684, 4633, 4680, 4621, 4937, 4886, 4933, 4874
3509, 4582, 4621, 4605, 4527, 4835, 4874, 4858, 4780
3510, 4544, 4677, 4589, 4671, 4797, 4930, 4842, 4924
3511, 4586, 4564, 4545, 4596, 4839, 4817, 4798, 4849
3512, 4591, 4576, 4556, 4577, 4844, 4829, 4809, 4830
3513, 4600, 4595, 4569, 4584, 4853, 4848, 4822, 4837
3514, 4593, 4578, 4610, 4583, 4846, 4831, 4863, 4836
3515, 4594, 4687, 4579, 4624, 4847, 4940, 4832, 4877
3516, 4681, 4572, 4538, 4552, 4934, 4825, 4791, 4805
3517, 4482, 4565, 4658, 4559, 4735, 4818, 4911, 4812
3518, 4599, 4585, 4627, 4506, 4852, 4838, 4880, 4759
3519, 4599, 4667, 4520, 4626, 4852, 4920, 4773, 4879
3520, 4583, 4555, 4676, 4593, 4836, 4808, 4929, 4846
3521, 4679, 4685, 4614, 4554, 4932, 4938, 4867, 4807
3522, 4595, 4600, 4606, 4563, 4848, 4853, 4859, 4816
3523, 4473, 4627, 4585, 4568, 4726, 4880, 4838, 4821
3524, 4613, 4628, 4641, 4615, 4866, 4881, 4894, 4868
3525, 4564, 4586, 4674, 4670, 4817, 4839, 4927, 4923
3526, 4609, 4525, 4553, 4587, 4862, 4778, 4806, 4840
3527, 4677, 4613, 4601, 4589, 4930, 4866, 4854, 4842
3528, 4592, 4610, 4578, 4551, 4845, 4863, 4831, 4804
3529, 4597, 4686, 4614, 4691, 4850, 4939, 4867, 4944
3530, 4576, 4591, 4603, 4590, 4829, 4844, 4856, 4843
3531, 4577, 4646, 4604, 4591, 4830, 4899, 4857, 4844
3532, 4597, 4691, 4573, 4612, 4850, 4944, 4826, 4865
3533, 4687, 4572, 4681, 4579, 4940, 4825, 4934, 4832
3534, 4615, 4683, 4601, 4613, 4868, 4936, 4854, 4866
3535, 4588, 4554, 4614, 4686, 4841, 4807, 4867, 4939
3536, 4575, 4598, 4613, 4677, 4828, 4851, 4866, 4930
3537, 4589, 4601, 4602, 4596, 4842, 4854, 4855, 4849
3538, 4620, 4624, 4579, 4581, 4873, 4877, 4832, 4834
3539, 4645, 4603, 4591, 4604, 4898, 4856, 4844, 4857
3540, 4608, 4617, 4600, 4584, 4861, 4870, 4853, 4837
3541, 4636, 4611, 4623, 4635, 4889, 4864, 4876, 4888
3542, 4590, 4603, 4623, 4611, 4843, 4856, 4876, 4864
3543, 4481, 4652, 4563, 4646, 4734, 4905, 4816, 4899
3544, 4621, 4680, 4522, 4605, 4874, 4933, 4775, 4858
3545, 4630, 4606, 4600, 4617, 4883, 4859, 4853, 4870
3546, 4657, 4580, 4675, 4607, 4910, 4833, 4928, 4860
3547, 4566, 4657, 4607, 4483, 4819, 4910, 4860, 4736
3548, 4674, 4586, 4673, 4608, 4927, 4839, 4926, 4861
3549, 4612, 4573, 4583, 4610, 4865, 4826, 4836, 4863
3550, 4618, 4597, 4612, 4616, 4871, 4850, 4865, 4869
3551, 4636, 4639, 4638, 4611, 4889, 4892, 4891, 4864
3552, 4691, 4614, 4685, 4573, 4944, 4867, 4938, 4826
3553, 4598, 4688, 4628, 4613, 4851, 4941, 4881, 4866
3554, 4592, 4611, 4638, 4616, 4845, 4864, 4891, 4869
3555, 4617, 4622, 4640, 4630, 4870, 4875, 4893, 4883
3556, 4631, 4638, 4639, 4642, 4884, 4891, 4892, 4895
3557, 4631, 4642, 4637, 4689, 4884, 4895, 4890, 4942
3558, 4647, 4594, 4624, 4643, 4900, 4847, 4877, 4896
3559, 4599, 4626, 4620, 4585, 4852, 4879, 4873, 4838
3560, 4582, 4588, 4684, 4621, 4835, 4841, 4937, 4874
3561, 4520, 4666, 4648, 4626, 4773, 4919, 4901, 4879
3562, 4632, 4622, 4673, 4602, 4885, 4875, 4926, 4855
3563, 4690, 4688, 4687, 4594, 4943, 4941, 4940, 4847
3564, 4634, 4690, 4594, 4647, 4887, 4943, 4847, 4900
3565, 4625, 4686, 4597, 4618, 4878, 4939, 4850, 4871
3566, 4626, 4648, 4629, 4620, 4879, 4901, 4882, 4873
3567, 4633, 4619, 4643, 4629, 4886, 4872, 4896, 4882
3568, 4629, 4643, 4624, 4620, 4882, 4896, 4877, 4873
3569, 4630, 4640, 4635, 4645, 4883, 4893, 4888, 4898
3570, 4645, 4604, 4606, 4630, 4898, 4857, 4859, 4883
3571, 4636, 4641, 4682, 4639, 4889, 4894, 4935, 4892
3572, 4618, 4631, 4689, 4625, 4871, 4884, 4942, 4878
3573, 4683, 4615, 4644, 4632, 4936, 4868, 4897, 4885
3574, 4619, 4633, 4684, 4692, 4872, 4886, 4937, 4945
3575, 4649, 4690, 4634, 4642, 4902, 4943, 4887, 4895
3576, 4603, 4645, 4635, 4623, 4856, 4898, 4888, 4876
3577, 4644, 4636, 4635, 4640, 4897, 4889, 4888, 4893
3578, 4637, 4647, 4643, 4619, 4890, 4900, 4896, 4872
3579, 4639, 4682, 4649, 4642, 4892, 4935, 4902, 4895
3580, 4632, 4644, 4640, 4622, 4885, 4897, 4893, 4875
3581, 4642, 4634, 4647, 4637, 4895, 4887, 4900, 4890
3582, 4690, 4649, 4628, 4688, 4943, 4902, 4881, 4941
3583, 4644, 4615, 4641, 4636, 4897, 4868, 4894, 4889
3584, 4680, 4633, 4629, 4648, 4933, 4886, 4882, 4901
3585, 4666, 4522, 4680, 4648, 4919, 4775, 4933, 4901
3586, 4641, 4628, 4649, 4682, 4894, 4881, 4902, 4935
3587, 4653, 4474, 4456, 4650, 4906, 4727, 4709, 4903
3588, 4655, 4477, 4465, 4651, 4908, 4730, 4718, 4904
3589, 4664, 4549, 4474, 4653, 4917, 4802, 4727, 4906
3590, 4656, 4479, 4467, 4494, 4909, 4732, 4720, 4747
3591, 4658, 4659, 4548, 4559, 4911, 4912, 4801, 4812
3592, 4663, 4561, 4546, 4529, 4916, 4814, 4799, 4782
3593, 4667, 4599, 4506, 4508, 4920, 4852, 4759, 4761
3594, 4670, 4559, 4548, 4564, 4923, 4812, 4801, 4817
3595, 4672, 4575, 4677, 4544, 4925, 4828, 4930, 4797
3596, 4675, 4580, 4670, 4674, 4928, 4833, 4923, 4927
3597, 4678, 4573, 4685, 4562, 4931, 4826, 4938, 4815
3598, 4683, 4632, 4602, 4601, 4936, 4885, 4855, 4854
3599, 4692, 4684, 4588, 4686, 4945, 4937, 4841, 4939
3600, 4619, 4692, 4689, 4637, 4872, 4945, 4942, 4890
3601, 4692, 4686, 4625, 4689, 4945, 4939, 4878, 4942
3602, 1469, 1468, 4697, 4707, 1519, 1518, 4950, 4960
3603, 4903, 4749, 4767, 4906, 5156, 5002, 5020, 5159
3604, 4693, 4742, 1476, 1475, 4946, 4995, 1526, 1525
3605, 4710, 4744, 1479, 1478, 4963, 4997, 1529, 1528
3606, 4780, 4728, 4763, 4827, 5033, 4981, 5016, 5080
3607, 1483, 1482, 4712, 4694, 1533, 1532, 4965, 4947
3608, 4774, 4777, 4765, 4757, 5027, 5030, 5018, 5010
3609, 4746, 4714, 1488, 1487, 4999, 4967, 1538, 1537
3610, 4741, 4714, 4759, 4880, 4994, 4967, 5012, 5133
3611, 4695, 4739, 1492, 1491, 4948, 4992, 1542, 1541
3612, 4716, 4748, 1495, 1494, 4969, 5001, 1545, 1544
3613, 4862, 4795, 4790, 4766, 5115, 5048, 5043, 5019
3614, 1500, 1499, 4718, 4698, 1550, 1549, 4971, 4951
3615, 4698, 4719, 1501, 1500, 4951, 4972, 1551, 1550
3616, 4704, 4737, 1464, 1463, 4957, 4990, 1514, 1513
3617, 4705, 4738, 1466, 1465, 4958, 4991, 1516, 1515
3618, 1468, 1467, 4706, 4697, 1518, 1517, 4959, 4950
3619, 4740, 4708, 1471, 1470, 4993, 4961, 1521, 1520
3620, 1504, 1503, 4720, 4699, 1554, 1553, 4973, 4952
3621, 4714, 4746, 4761, 4759, 4967, 4999, 5014, 5012
3622, 4699, 4720, 4732, 4731, 4952, 4973, 4985, 4984
3623, 4764, 4909, 4747, 4719, 5017, 5162, 5000, 4972
3624, 4818, 4735, 4722, 4700, 5071, 4988, 4975, 4953
3625, 1461, 1460, 4702, 4703, 1511, 1510, 4955, 4956
3626, 4763, 4728, 4712, 4745, 5016, 4981, 4965, 4998
3627, 4737, 4705, 1465, 1464, 4990, 4958, 1515, 1514
3628, 4706, 4738, 4762, 4725, 4959, 4991, 5015, 4978
3629, 4737, 4704, 4734, 4772, 4990, 4957, 4987, 5025
3630, 4708, 4749, 1472, 1471, 4961, 5002, 1522, 1521
3631, 1473, 1472, 4749, 4903, 1523, 1522, 5002, 5156
3632, 1475, 1474, 4709, 4693, 1525, 1524, 4962, 4946
3633, 4742, 4753, 1477, 1476, 4995, 5006, 1527, 1526
3634, 4744, 4711, 1480, 1479, 4997, 4964, 1530, 1529
3635, 4694, 4743, 1484, 1483, 4947, 4996, 1534, 1533
3636, 4713, 4746, 1487, 1486, 4966, 4999, 1537, 1536
3637, 4838, 4873, 4834, 4821, 5091, 5126, 5087, 5074
3638, 1491, 1490, 4715, 4695, 1541, 1540, 4968, 4948
3639, 4800, 4777, 4932, 4807, 5053, 5030, 5185, 5060
3640, 4748, 4717, 1496, 1495, 5001, 4970, 1546, 1545
3641, 1498, 1497, 4751, 4904, 1548, 1547, 5004, 5157
3642, 4904, 4751, 4915, 4908, 5157, 5004, 5168, 5161
3643, 4730, 4729, 4698, 4718, 4983, 4982, 4951, 4971
3644, 4699, 4721, 1505, 1504, 4952, 4974, 1555, 1554
3645, 4721, 4700, 1506, 1505, 4974, 4953, 1556, 1555
3646, 4722, 4701, 1508, 1507, 4975, 4954, 1558, 1557
3647, 4912, 4913, 4731, 4732, 5165, 5166, 4984, 4985
3648, 4724, 4703, 4702, 4820, 4977, 4956, 4955, 5073
3649, 4743, 4752, 1485, 1484, 4996, 5005, 1535, 1534
3650, 4739, 4750, 1493, 1492, 4992, 5003, 1543, 1542
3651, 1462, 1461, 4703, 4696, 1512, 1511, 4956, 4949
3652, 4696, 4704, 1463, 1462, 4949, 4957, 1513, 1512
3653, 4707, 4740, 1470, 1469, 4960, 4993, 1520, 1519
3654, 4733, 4771, 4707, 4697, 4986, 5024, 4960, 4950
3655, 4719, 4747, 1502, 1501, 4972, 5000, 1552, 1551
3656, 4747, 4720, 1503, 1502, 5000, 4973, 1553, 1552
3657, 4700, 4722, 1507, 1506, 4953, 4975, 1557, 1556
3658, 4913, 4818, 4700, 4721, 5166, 5071, 4953, 4974
3659, 4701, 4723, 1509, 1508, 4954, 4976, 1559, 1558
3660, 4735, 4819, 4701, 4722, 4988, 5072, 4954, 4975
3661, 4723, 4702, 1460, 1509, 4976, 4955, 1510, 1559
3662, 4819, 4736, 4723, 4701, 5072, 4989, 4976, 4954
3663, 4703, 4724, 4905, 4696, 4956, 4977, 5158, 4949
3664, 4772, 4793, 4705, 4737, 5025, 5046, 4958, 4990
3665, 4738, 4706, 1467, 1466, 4991, 4959, 1517, 1516
3666, 4725, 4733, 4697, 4706, 4978, 4986, 4950, 4959
3667, 4782, 4799, 4708, 4740, 5035, 5052, 4961, 4993
3668, 4779, 4755, 4725, 4762, 5032, 5008, 4978, 5015
3669, 4727, 4786, 4693, 4709, 4980, 5039, 4946, 4962
3670, 4804, 4794, 4829, 4843, 5057, 5047, 5082, 5096
3671, 4757, 4765, 4753, 4742, 5010, 5018, 5006, 4995
3672, 4711, 4745, 1481, 1480, 4964, 4998, 1531, 1530
3673, 4745, 4712, 1482, 1481, 4998, 4965, 1532, 1531
3674, 4743, 4694, 4787, 4756, 4996, 4947, 5040, 5009
3675, 4756, 4787, 4858, 4775, 5009, 5040, 5111, 5028
3676, 4756, 4770, 4752, 4743, 5009, 5023, 5005, 4996
3677, 4714, 4741, 1489, 1488, 4967, 4994, 1539, 1538
3678, 4741, 4715, 1490, 1489, 4994, 4968, 1540, 1539
3679, 4880, 4726, 4715, 4741, 5133, 4979, 4968, 4994
3680, 4755, 4788, 4733, 4725, 5008, 5041, 4986, 4978
3681, 4758, 4768, 4750, 4739, 5011, 5021, 5003, 4992
3682, 4717, 4751, 1497, 1496, 4970, 5004, 1547, 1546
3683, 4914, 4925, 4797, 4754, 5167, 5178, 5050, 5007
3684, 4909, 4789, 4781, 4732, 5162, 5042, 5034, 4985
3685, 4699, 4731, 4913, 4721, 4952, 4984, 5166, 4974
3686, 4696, 4905, 4734, 4704, 4949, 5158, 4987, 4957
3687, 4768, 4758, 4776, 4778, 5021, 5011, 5029, 5031
3688, 4771, 4782, 4740, 4707, 5024, 5035, 4993, 4960
3689, 4726, 4785, 4695, 4715, 4979, 5038, 4948, 4968
3690, 4739, 4695, 4785, 4758, 4992, 4948, 5038, 5011
3691, 4742, 4693, 4786, 4757, 4995, 4946, 5039, 5010
3692, 4813, 4907, 4711, 4744, 5066, 5160, 4964, 4997
3693, 4728, 4787, 4694, 4712, 4981, 5040, 4947, 4965
3694, 4770, 4756, 4775, 4919, 5023, 5009, 5028, 5172
3695, 4729, 4764, 4719, 4698, 4982, 5017, 4972, 4951
3696, 4764, 4754, 4789, 4909, 5017, 5007, 5042, 5162
3697, 4790, 4803, 4717, 4748, 5043, 5056, 4970, 5001
3698, 4789, 4924, 4798, 4781, 5042, 5177, 5051, 5034
3699, 4824, 4916, 4782, 4771, 5077, 5169, 5035, 5024
3700, 4762, 4793, 4809, 4779, 5015, 5046, 5062, 5032
3701, 4772, 4734, 4899, 4830, 5025, 4987, 5152, 5083
3702, 4736, 4820, 4702, 4723, 4989, 5073, 4955, 4976
3703, 4928, 4927, 4861, 4837, 5181, 5180, 5114, 5090
3704, 4750, 4716, 1494, 1493, 5003, 4969, 1544, 1543
3705, 4753, 4710, 1478, 1477, 5006, 4963, 1528, 1527
3706, 4752, 4713, 1486, 1485, 5005, 4966, 1536, 1535
3707, 4903, 4709, 1474, 1473, 5156, 4962, 1524, 1523
3708, 4768, 4766, 4716, 4750, 5021, 5019, 4969, 5003
3709, 4904, 4718, 1499, 1498, 5157, 4971, 1549, 1548
3710, 4770, 4769, 4713, 4752, 5023, 5022, 4966, 5005
3711, 4765, 4760, 4710, 4753, 5018, 5013, 4963, 5006
3712, 4788, 4824, 4771, 4733, 5041, 5077, 5024, 4986
3713, 4918, 4774, 4757, 4786, 5171, 5027, 5010, 5039
3714, 4786, 4727, 4802, 4918, 5039, 4980, 5055, 5171
3715, 4760, 4813, 4744, 4710, 5013, 5066, 4997, 4963
3716, 4785, 4726, 4821, 4921, 5038, 4979, 5074, 5174
3717, 4766, 4790, 4748, 4716, 5019, 5043, 5001, 4969
3718, 4921, 4821, 4834, 4805, 5174, 5074, 5087, 5058
3719, 4800, 4827, 4813, 4760, 5053, 5080, 5066, 5013
3720, 4787, 4728, 4780, 4858, 5040, 4981, 5033, 5111
3721, 4761, 4769, 4773, 4920, 5014, 5022, 5026, 5173
3722, 4746, 4713, 4769, 4761, 4999, 4966, 5022, 5014
3723, 4705, 4793, 4762, 4738, 4958, 5046, 5015, 4991
3724, 4922, 4784, 4915, 4803, 5175, 5037, 5168, 5056
3725, 4776, 4921, 4805, 4791, 5029, 5174, 5058, 5044
3726, 4749, 4708, 4799, 4767, 5002, 4961, 5052, 5020
3727, 4914, 4729, 4730, 4784, 5167, 4982, 4983, 5037
3728, 4769, 4770, 4919, 4773, 5022, 5023, 5172, 5026
3729, 4755, 4779, 4794, 4796, 5008, 5032, 5047, 5049
3730, 4804, 4831, 4796, 4794, 5057, 5084, 5049, 5047
3731, 4777, 4800, 4760, 4765, 5030, 5053, 5013, 5018
3732, 4869, 4865, 4863, 4845, 5122, 5118, 5116, 5098
3733, 4778, 4862, 4766, 4768, 5031, 5115, 5019, 5021
3734, 4776, 4791, 4806, 4778, 5029, 5044, 5059, 5031
3735, 4809, 4829, 4794, 4779, 5062, 5082, 5047, 5032
3736, 4934, 4805, 4834, 4832, 5187, 5058, 5087, 5085
3737, 4818, 4913, 4912, 4911, 5071, 5166, 5165, 5164
3738, 4814, 4916, 4824, 4823, 5067, 5169, 5077, 5076
3739, 4846, 4929, 4823, 4811, 5099, 5182, 5076, 5064
3740, 4783, 4917, 4906, 4767, 5036, 5170, 5159, 5020
3741, 4915, 4784, 4730, 4908, 5168, 5037, 4983, 5161
3742, 4811, 4823, 4824, 4788, 5064, 5076, 5077, 5041
3743, 4729, 4914, 4754, 4764, 4982, 5167, 5007, 5017
3744, 4795, 4922, 4803, 4790, 5048, 5175, 5056, 5043
3745, 4862, 4840, 4810, 4795, 5115, 5093, 5063, 5048
3746, 4871, 4869, 4891, 4884, 5124, 5122, 5144, 5137
3747, 4931, 4815, 4918, 4802, 5184, 5068, 5171, 5055
3748, 4792, 4932, 4777, 4774, 5045, 5185, 5030, 5027
3749, 4793, 4772, 4830, 4809, 5046, 5025, 5083, 5062
3750, 4796, 4811, 4788, 4755, 5049, 5064, 5041, 5008
3751, 4925, 4914, 4784, 4810, 5178, 5167, 5037, 5063
3752, 4831, 4846, 4811, 4796, 5084, 5099, 5064, 5049
3753, 4924, 4842, 4849, 4798, 5177, 5095, 5102, 5051
3754, 4924, 4789, 4754, 4797, 5177, 5042, 5007, 5050
3755, 4781, 4798, 4817, 4801, 5034, 5051, 5070, 5054
3756, 4833, 4910, 4812, 4923, 5086, 5163, 5065, 5176
3757, 4767, 4799, 4814, 4783, 5020, 5052, 5067, 5036
3758, 4801, 4912, 4732, 4781, 5054, 5165, 4985, 5034
3759, 4928, 4837, 4822, 4860, 5181, 5090, 5075, 5113
3760, 4774, 4918, 4815, 4792, 5027, 5171, 5068, 5045
3761, 4917, 4808, 4931, 4802, 5170, 5061, 5184, 5055
3762, 4803, 4915, 4751, 4717, 5056, 5168, 5004, 4970
3763, 4849, 4855, 4926, 4839, 5102, 5108, 5179, 5092
3764, 4828, 4925, 4810, 4840, 5081, 5178, 5063, 5093
3765, 4780, 4827, 4841, 4835, 5033, 5080, 5094, 5088
3766, 4917, 4783, 4929, 4808, 5170, 5036, 5182, 5061
3767, 4931, 4808, 4836, 4826, 5184, 5061, 5089, 5079
3768, 4816, 4859, 4857, 4899, 5069, 5112, 5110, 5152
3769, 4810, 4784, 4922, 4795, 5063, 5037, 5175, 5048
3770, 4823, 4929, 4783, 4814, 5076, 5182, 5036, 5067
3771, 4822, 4820, 4736, 4860, 5075, 5073, 4989, 5113
3772, 4907, 4763, 4745, 4711, 5160, 5016, 4998, 4964
3773, 4763, 4907, 4813, 4827, 5016, 5160, 5066, 5080
3774, 4938, 4932, 4792, 4815, 5191, 5185, 5045, 5068
3775, 4820, 4822, 4848, 4724, 5073, 5075, 5101, 4977
3776, 4724, 4848, 4816, 4905, 4977, 5101, 5069, 5158
3777, 4851, 4825, 4940, 4941, 5104, 5078, 5193, 5194
3778, 4910, 4819, 4735, 4812, 5163, 5072, 4988, 5065
3779, 4921, 4776, 4758, 4785, 5174, 5029, 5011, 5038
3780, 4861, 4926, 4875, 4870, 5114, 5179, 5128, 5123
3781, 4825, 4840, 4806, 4791, 5078, 5093, 5059, 5044
3782, 4840, 4825, 4851, 4828, 5093, 5078, 5104, 5081
3783, 4843, 4864, 4845, 4804, 5096, 5117, 5098, 5057
3784, 4827, 4800, 4807, 4841, 5080, 5053, 5060, 5094
3785, 4937, 4886, 4933, 4874, 5190, 5139, 5186, 5127
3786, 4835, 4874, 4858, 4780, 5088, 5127, 5111, 5033
3787, 4797, 4930, 4842, 4924, 5050, 5183, 5095, 5177
3788, 4839, 4817, 4798, 4849, 5092, 5070, 5051, 5102
3789, 4844, 4829, 4809, 4830, 5097, 5082, 5062, 5083
3790, 4853, 4848, 4822, 4837, 5106, 5101, 5075, 5090
3791, 4846, 4831, 4863, 4836, 5099, 5084, 5116, 5089
3792, 4847, 4940, 4832, 4877, 5100, 5193, 5085, 5130
3793, 4934, 4825, 4791, 4805, 5187, 5078, 5044, 5058
3794, 4735, 4818, 4911, 4812, 4988, 5071, 5164, 5065
3795, 4852, 4838, 4880, 4759, 5105, 5091, 5133, 5012
3796, 4852, 4920, 4773, 4879, 5105, 5173, 5026, 5132
3797, 4836, 4808, 4929, 4846, 5089, 5061, 5182, 5099
3798, 4932, 4938, 4867, 4807, 5185, 5191, 5120, 5060
3799, 4848, 4853, 4859, 4816, 5101, 5106, 5112, 5069
3800, 4726, 4880, 4838, 4821, 4979, 5133, 5091, 5074
3801, 4866, 4881, 4894, 4868, 5119, 5134, 5147, 5121
3802, 4817, 4839, 4927, 4923, 5070, 5092, 5180, 5176
3803, 4862, 4778, 4806, 4840, 5115, 5031, 5059, 5093
3804, 4930, 4866, 4854, 4842, 5183, 5119, 5107, 5095
3805, 4845, 4863, 4831, 4804, 5098, 5116, 5084, 5057
3806, 4850, 4939, 4867, 4944, 5103, 5192, 5120, 5197
3807, 4829, 4844, 4856, 4843, 5082, 5097, 5109, 5096
3808, 4830, 4899, 4857, 4844, 5083, 5152, 5110, 5097
3809, 4850, 4944, 4826, 4865, 5103, 5197, 5079, 5118
3810, 4940, 4825, 4934, 4832, 5193, 5078, 5187, 5085
3811, 4868, 4936, 4854, 4866, 5121, 5189, 5107, 5119
3812, 4841, 4807, 4867, 4939, 5094, 5060, 5120, 5192
3813, 4828, 4851, 4866, 4930, 5081, 5104, 5119, 5183
3814, 4842, 4854, 4855, 4849, 5095, 5107, 5108, 5102
3815, 4873, 4877, 4832, 4834, 5126, 5130, 5085, 5087
3816, 4898, 4856, 4844, 4857, 5151, 5109, 5097, 5110
3817, 4861, 4870, 4853, 4837, 5114, 5123, 5106, 5090
3818, 4889, 4864, 4876, 4888, 5142, 5117, 5129, 5141
3819, 4843, 4856, 4876, 4864, 5096, 5109, 5129, 5117
3820, 4734, 4905, 4816, 4899, 4987, 5158, 5069, 5152
3821, 4874, 4933, 4775, 4858, 5127, 5186, 5028, 5111
3822, 4883, 4859, 4853, 4870, 5136, 5112, 5106, 5123
3823, 4910, 4833, 4928, 4860, 5163, 5086, 5181, 5113
3824, 4819, 4910, 4860, 4736, 5072, 5163, 5113, 4989
3825, 4927, 4839, 4926, 4861, 5180, 5092, 5179, 5114
3826, 4865, 4826, 4836, 4863, 5118, 5079, 5089, 5116
3827, 4871, 4850, 4865, 4869, 5124, 5103, 5118, 5122
3828, 4889, 4892, 4891, 4864, 5142, 5145, 5144, 5117
3829, 4944, 4867, 4938, 4826, 5197, 5120, 5191, 5079
3830, 4851, 4941, 4881, 4866, 5104, 5194, 5134, 5119
3831, 4845, 4864, 4891, 4869, 5098, 5117, 5144, 5122
3832, 4870, 4875, 4893, 4883, 5123, 5128, 5146, 5136
3833, 4884, 4891, 4892, 4895, 5137, 5144, 5145, 5148
3834, 4884, 4895, 4890, 4942, 5137, 5148, 5143, 5195
3835, 4900, 4847, 4877, 4896, 5153, 5100, 5130, 5149
3836, 4852, 4879, 4873, 4838, 5105, 5132, 5126, 5091
3837, 4835, 4841, 4937, 4874, 5088, 5094, 5190, 5127
3838, 4773, 4919, 4901, 4879, 5026, 5172, 5154, 5132
3839, 4885, 4875, 4926, 4855, 5138, 5128, 5179, 5108
3840, 4943, 4941, 4940, 4847, 5196, 5194, 5193, 5100
3841, 4887, 4943, 4847, 4900, 5140, 5196, 5100, 5153
3842, 4878, 4939, 4850, 4871, 5131, 5192, 5103, 5124
3843, 4879, 4901, 4882, 4873, 5132, 5154, 5135, 5126
3844, 4886, 4872, 4896, 4882, 5139, 5125, 5149, 5135
3845, 4882, 4896, 4877, 4873, 5135, 5149, 5130, 5126
3846, 4883, 4893, 4888, 4898, 5136, 5146, 5141, 5151
3847, 4898, 4857, 4859, 4883, 5151, 5110, 5112, 5136
3848, 4889, 4894, 4935, 4892, 5142, 5147, 5188, 5145
3849, 4871, 4884, 4942, 4878, 5124, 5137, 5195, 5131
3850, 4936, 4868, 4897, 4885, 5189, 5121, 5150, 5138
3851, 4872, 4886, 4937, 4945, 5125, 5139, 5190, 5198
3852, 4902, 4943, 4887, 4895, 5155, 5196, 5140, 5148
3853, 4856, 4898, 4888, 4876, 5109, 5151, 5141, 5129
3854, 4897, 4889, 4888, 4893, 5150, 5142, 5141, 5146
3855, 4890, 4900, 4896, 4872, 5143, 5153, 5149, 5125
3856, 4892, 4935, 4902, 4895, 5145, 5188, 5155, 5148
3857, 4885, 4897, 4893, 4875, 5138, 5150, 5146, 5128
3858, 4895, 4887, 4900, 4890, 5148, 5140, 5153, 5143
3859, 4943, 4902, 4881, 4941, 5196, 5155, 5134, 5194
3860, 4897, 4868, 4894, 4889, 5150, 5121, 5147, 5142
3861, 4933, 4886, 4882, 4901, 5186, 5139, 5135, 5154
3862, 4919, 4775, 4933, 4901, 5172, 5028, 5186, 5154
3863, 4894, 4881, 4902, 4935, 5147, 5134, 5155, 5188
3864, 4906, 4727, 4709, 4903, 5159, 4980, 4962, 5156
3865, 4908, 4730, 4718, 4904, 5161, 4983, 4971, 5157
3866, 4917, 4802, 4727, 4906, 5170, 5055, 4980, 5159
3867, 4909, 4732, 4720, 4747, 5162, 4985, 4973, 5000
3868, 4911, 4912, 4801, 4812, 5164, 5165, 5054, 5065
3869, 4916, 4814, 4799, 4782, 5169, 5067, 5052, 5035
3870, 4920, 4852, 4759, 4761, 5173, 5105, 5012, 5014
3871, 4923, 4812, 4801, 4817, 5176, 5065, 5054, 5070
3872, 4925, 4828, 4930, 4797, 5178, 5081, 5183, 5050
3873, 4928, 4833, 4923, 4927, 5181, 5086, 5176, 5180
3874, 4931, 4826, 4938, 4815, 5184, 5079, 5191, 5068
3875, 4936, 4885, 4855, 4854, 5189, 5138, 5108, 5107
3876, 4945, 4937, 4841, 4939, 5198, 5190, 5094, 5192
3877, 4872, 4945, 4942, 4890, 5125, 5198, 5195, 5143
3878, 4945, 4939, 4878, 4942, 5198, 5192, 5131, 5195
3879, 1519, 1518, 4950, 4960, 1569, 1568, 5203, 5213
3880, 5156, 5002, 5020, 5159, 5409, 5255, 5273, 5412
3881, 4946, 4995, 1526, 1525, 5199, 5248, 1576, 1575
3882, 4963, 4997, 1529, 1528, 5216, 5250, 1579, 1578
3883, 5033, 4981, 5016, 5080, 5286, 5234, 5269, 5333
3884, 1533, 1532, 4965, 4947, 1583, 1582, 5218, 5200
3885, 5027, 5030, 5018, 5010, 5280, 5283, 5271, 5263
3886, 4999, 4967, 1538, 1537, 5252, 5220, 1588, 1587
3887, 4994, 4967, 5012, 5133, 5247, 5220, 5265, 5386
3888, 4948, 4992, 1542, 1541, 5201, 5245, 1592, 1591
3889, 4969, 5001, 1545, 1544, 5222, 5254, 1595, 1594
3890, 5115, 5048, 5043, 5019, 5368, 5301, 5296, 5272
3891, 1550, 1549, 4971, 4951, 1600, 1599, 5224, 5204
3892, 4951, 4972, 1551, 1550, 5204, 5225, 1601, 1600
3893, 4957, 4990, 1514, 1513, 5210, 5243, 1564, 1563
3894, 4958, 4991, 1516, 1515, 5211, 5244, 1566, 1565
3895, 1518, 1517, 4959, 4950, 1568, 1567, 5212, 5203
3896, 4993, 4961, 1521, 1520, 5246, 5214, 1571, 1570
3897, 1554, 1553, 4973, 4952, 1604, 1603, 5226, 5205
3898, 4967, 4999, 5014, 5012, 5220, 5252, 5267, 5265
3899, 4952, 4973, 4985, 4984, 5205, 5226, 5238, 5237
3900, 5017, 5162, 5000, 4972, 5270, 5415, 5253, 5225
3901, 5071, 4988, 4975, 4953, 5324, 5241, 5228, 5206
3902, 1511, 1510, 4955, 4956, 1561, 1560, 5208, 5209
3903, 5016, 4981, 4965, 4998, 5269, 5234, 5218, 5251
3904, 4990, 4958, 1515, 1514, 5243, 5211, 1565, 1564
3905, 4959, 4991, 5015, 4978, 5212, 5244, 5268, 5231
3906, 4990, 4957, 4987, 5025, 5243, 5210, 5240, 5278
3907, 4961, 5002, 1522, 1521, 5214, 5255, 1572, 1571
3908, 1523, 1522, 5002, 5156, 1573, 1572, 5255, 5409
3909, 1525, 1524, 4962, 4946, 1575, 1574, 5215, 5199
3910, 4995, 5006, 1527, 1526, 5248, 5259, 1577, 1576
3911, 4997, 4964, 1530, 1529, 5250, 5217, 1580, 1579
3912, 4947, 4996, 1534, 1533, 5200, 5249, 1584, 1583
3913, 4966, 4999, 1537, 1536, 5219, 5252, 1587, 1586
3914, 5091, 5126, 5087, 5074, 5344, 5379, 5340, 5327
3915, 1541, 1540, 4968, 4948, 1591, 1590, 5221, 5201
3916, 5053, 5030, 5185, 5060, 5306, 5283, 5438, 5313
3917, 5001, 4970, 1546, 1545, 5254, 5223, 1596, 1595
3918, 1548, 1547, 5004, 5157, 1598, 1597, 5257, 5410
3919, 5157, 5004, 5168, 5161, 5410, 5257, 5421, 5414
3920, 4983, 4982, 4951, 4971, 5236, 5235, 5204, 5224
3921, 4952, 4974, 1555, 1554, 5205, 5227, 1605, 1604
3922, 4974, 4953, 1556, 1555, 5227, 5206, 1606, 1605
3923, 4975, 4954, 1558, 1557, 5228, 5207, 1608, 1607
3924, 5165, 5166, 4984, 4985, 5418, 5419, 5237, 5238
3925, 4977, 4956, 4955, 5073, 5230, 5209, 5208, 5326
3926, 4996, 5005, 1535, 1534, 5249, 5258, 1585, 1584
3927, 4992, 5003, 1543, 1542, 5245, 5256, 1593, 1592
3928, 1512, 1511, 4956, 4949, 1562, 1561, 5209, 5202
3929, 4949, 4957, 1513, 1512, 5202, 5210, 1563, 1562
3930, 4960, 4993, 1520, 1519, 5213, 5246, 1570, 1569
3931, 4986, 5024, 4960, 4950, 5239, 5277, 5213, 5203
3932, 4972, 5000, 1552, 1551, 5225, 5253, 1602, 1601
3933, 5000, 4973, 1553, 1552, 5253, 5226, 1603, 1602
3934, 4953, 4975, 1557, 1556, 5206, 5228, 1607, 1606
3935, 5166, 5071, 4953, 4974, 5419, 5324, 5206, 5227
3936, 4954, 4976, 1559, 1558, 5207, 5229, 1609, 1608
3937, 4988, 5072, 4954, 4975, 5241, 5325, 5207, 5228
3938, 4976, 4955, 1510, 1559, 5229, 5208, 1560, 1609
3939, 5072, 4989, 4976, 4954, 5325, 5242, 5229, 5207
3940, 4956, 4977, 5158, 4949, 5209, 5230, 5411, 5202
3941, 5025, 5046, 4958, 4990, 5278, 5299, 5211, 5243
3942, 4991, 4959, 1517, 1516, 5244, 5212, 1567, 1566
3943, 4978, 4986, 4950, 4959, 5231, 5239, 5203, 5212
3944, 5035, 5052, 4961, 4993, 5288, 5305, 5214, 5246
3945, 5032, 5008, 4978, 5015, 5285, 5261, 5231, 5268
3946, 4980, 5039, 4946, 4962, 5233, 5292, 5199, 5215
3947, 5057, 5047, 5082, 5096, 5310, 5300, 5335, 5349
3948, 5010, 5018, 5006, 4995, 5263, 5271, 5259, 5248
3949, 4964, 4998, 1531, 1530, 5217, 5251, 1581, 1580
3950, 4998, 4965, 1532, 1531, 5251, 5218, 1582, 1581
3951, 4996, 4947, 5040, 5009, 5249, 5200, 5293, 5262
3952, 5009, 5040, 5111, 5028, 5262, 5293, 5364, 5281
3953, 5009, 5023, 5005, 4996, 5262, 5276, 5258, 5249
3954, 4967, 4994, 1539, 1538, 5220, 5247, 1589, 1588
3955, 4994, 4968, 1540, 1539, 5247, 5221, 1590, 1589
3956, 5133, 4979, 4968, 4994, 5386, 5232, 5221, 5247
3957, 5008, 5041, 4986, 4978, 5261, 5294, 5239, 5231
3958, 5011, 5021, 5003, 4992, 5264, 5274, 5256, 5245
3959, 4970, 5004, 1547, 1546, 5223, 5257, 1597, 1596
3960, 5167, 5178, 5050, 5007, 5420, 5431, 5303, 5260
3961, 5162, 5042, 5034, 4985, 5415, 5295, 5287, 5238
3962, 4952, 4984, 5166, 4974, 5205, 5237, 5419, 5227
3963, 4949, 5158, 4987, 4957, 5202, 5411, 5240, 5210
3964, 5021, 5011, 5029, 5031, 5274, 5264, 5282, 5284
3965, 5024, 5035, 4993, 4960, 5277, 5288, 5246, 5213
3966, 4979, 5038, 4948, 4968, 5232, 5291, 5201, 5221
3967, 4992, 4948, 5038, 5011, 5245, 5201, 5291, 5264
3968, 4995, 4946, 5039, 5010, 5248, 5199, 5292, 5263
3969, 5066, 5160, 4964, 4997, 5319, 5413, 5217, 5250
3970, 4981, 5040, 4947, 4965, 5234, 5293, 5200, 5218
3971, 5023, 5009, 5028, 5172, 5276, 5262, 5281, 5425
3972, 4982, 5017, 4972, 4951, 5235, 5270, 5225, 5204
3973, 5017, 5007, 5042, 5162, 5270, 5260, 5295, 5415
3974, 5043, 5056, 4970, 5001, 5296, 5309, 5223, 5254
3975, 5042, 5177, 5051, 5034, 5295, 5430, 5304, 5287
3976, 5077, 5169, 5035, 5024, 5330, 5422, 5288, 5277
3977, 5015, 5046, 5062, 5032, 5268, 5299, 5315, 5285
3978, 5025, 4987, 5152, 5083, 5278, 5240, 5405, 5336
3979, 4989, 5073, 4955, 4976, 5242, 5326, 5208, 5229
3980, 5181, 5180, 5114, 5090, 5434, 5433, 5367, 5343
3981, 5003, 4969, 1544, 1543, 5256, 5222, 1594, 1593
3982, 5006, 4963, 1528, 1527, 5259, 5216, 1578, 1577
3983, 5005, 4966, 1536, 1535, 5258, 5219, 1586, 1585
3984, 5156, 4962, 1524, 1523, 5409, 5215, 1574, 1573
3985, 5021, 5019, 4969, 5003, 5274, 5272, 5222, 5256
3986, 5157, 4971, 1549, 1548, 5410, 5224, 1599, 1598
3987, 5023, 5022, 4966, 5005, 5276, 5275, 5219, 5258
3988, 5018, 5013, 4963, 5006, 5271, 5266, 5216, 5259
3989, 5041, 5077, 5024, 4986, 5294, 5330, 5277, 5239
3990, 5171, 5027, 5010, 5039, 5424, 5280, 5263, 5292
3991, 5039, 4980, 5055, 5171, 5292, 5233, 5308, 5424
3992, 5013, 5066, 4997, 4963, 5266, 5319, 5250, 5216
3993, 5038, 4979, 5074, 5174, 5291, 5232, 5327, 5427
3994, 5019, 5043, 5001, 4969, 5272, 5296, 5254, 5222
3995, 5174, 5074, 5087, 5058, 5427, 5327, 5340, 5311
3996, 5053, 5080, 5066, 5013, 5306, 5333, 5319, 5266
3997, 5040, 4981, 5033, 5111, 5293, 5234, 5286, 5364
3998, 5014, 5022, 5026, 5173, 5267, 5275, 5279, 5426
3999, 4999, 4966, 5022, 5014, 5252, 5219, 5275, 5267
4000, 4958, 5046, 5015, 4991, 5211, 5299, 5268, 5244
4001, 5175, 5037, 5168, 5056, 5428, 5290, 5421, 5309
4002, 5029, 5174, 5058, 5044, 5282, 5427, 5311, 5297
4003, 5002, 4961, 5052, 5020, 5255, 5214, 5305, 5273
4004, 5167, 4982, 4983, 5037, 5420, 5235, 5236, 5290
4005, 5022, 5023, 5172, 5026, 5275, 5276, 5425, 5279
4006, 5008, 5032, 5047, 5049, 5261, 5285, 5300, 5302
4007, 5057, 5084, 5049, 5047, 5310, 5337, 5302, 5300
4008, 5030, 5053, 5013, 5018, 5283, 5306, 5266, 5271
4009, 5122, 5118, 5116, 5098, 5375, 5371, 5369, 5351
4010, 5031, 5115, 5019, 5021, 5284, 5368, 5272, 5274
4011, 5029, 5044, 5059, 5031, 5282, 5297, 5312, 5284
4012, 5062, 5082, 5047, 5032, 5315, 5335, 5300, 5285
4013, 5187, 5058, 5087, 5085, 5440, 5311, 5340, 5338
4014, 5071, 5166, 5165, 5164, 5324, 5419, 5418, 5417
4015, 5067, 5169, 5077, 5076, 5320, 5422, 5330, 5329
4016, 5099, 5182, 5076, 5064, 5352, 5435, 5329, 5317
4017, 5036, 5170, 5159, 5020, 5289, 5423, 5412, 5273
4018, 5168, 5037, 4983, 5161, 5421, 5290, 5236, 5414
4019, 5064, 5076, 5077, 5041, 5317, 5329, 5330, 5294
4020, 4982, 5167, 5007, 5017, 5235, 5420, 5260, 5270
4021, 5048, 5175, 5056, 5043, 5301, 5428, 5309, 5296
4022, 5115, 5093, 5063, 5048, 5368, 5346, 5316, 5301
4023, 5124, 5122, 5144, 5137, 5377, 5375, 5397, 5390
4024, 5184, 5068, 5171, 5055, 5437, 5321, 5424, 5308
4025, 5045, 5185, 5030, 5027, 5298, 5438, 5283, 5280
4026, 5046, 5025, 5083, 5062, 5299, 5278, 5336, 5315
4027, 5049, 5064, 5041, 5008, 5302, 5317, 5294, 5261
4028, 5178, 5167, 5037, 5063, 5431, 5420, 5290, 5316
4029, 5084, 5099, 5064, 5049, 5337, 5352, 5317, 5302
4030, 5177, 5095, 5102, 5051, 5430, 5348, 5355, 5304
4031, 5177, 5042, 5007, 5050, 5430, 5295, 5260, 5303
4032, 5034, 5051, 5070, 5054, 5287, 5304, 5323, 5307
4033, 5086, 5163, 5065, 5176, 5339, 5416, 5318, 5429
4034, 5020, 5052, 5067, 5036, 5273, 5305, 5320, 5289
4035, 5054, 5165, 4985, 5034, 5307, 5418, 5238, 5287
4036, 5181, 5090, 5075, 5113, 5434, 5343, 5328, 5366
4037, 5027, 5171, 5068, 5045, 5280, 5424, 5321, 5298
4038, 5170, 5061, 5184, 5055, 5423, 5314, 5437, 5308
4039, 5056, 5168, 5004, 4970, 5309, 5421, 5257, 5223
4040, 5102, 5108, 5179, 5092, 5355, 5361, 5432, 5345
4041, 5081, 5178, 5063, 5093, 5334, 5431, 5316, 5346
4042, 5033, 5080, 5094, 5088, 5286, 5333, 5347, 5341
4043, 5170, 5036, 5182, 5061, 5423, 5289, 5435, 5314
4044, 5184, 5061, 5089, 5079, 5437, 5314, 5342, 5332
4045, 5069, 5112, 5110, 5152, 5322, 5365, 5363, 5405
4046, 5063, 5037, 5175, 5048, 5316, 5290, 5428, 5301
4047, 5076, 5182, 5036, 5067, 5329, 5435, 5289, 5320
4048, 5075, 5073, 4989, 5113, 5328, 5326, 5242, 5366
4049, 5160, 5016, 4998, 4964, 5413, 5269, 5251, 5217
4050, 5016, 5160, 5066, 5080, 5269, 5413, 5319, 5333
4051, 5191, 5185, 5045, 5068, 5444, 5438, 5298, 5321
4052, 5073, 5075, 5101, 4977, 5326, 5328, 5354, 5230
4053, 4977, 5101, 5069, 5158, 5230, 5354, 5322, 5411
4054, 5104, 5078, 5193, 5194, 5357, 5331, 5446, 5447
4055, 5163, 5072, 4988, 5065, 5416, 5325, 5241, 5318
4056, 5174, 5029, 5011, 5038, 5427, 5282, 5264, 5291
4057, 5114, 5179, 5128, 5123, 5367, 5432, 5381, 5376
4058, 5078, 5093, 5059, 5044, 5331, 5346, 5312, 5297
4059, 5093, 5078, 5104, 5081, 5346, 5331, 5357, 5334
4060, 5096, 5117, 5098, 5057, 5349, 5370, 5351, 5310
4061, 5080, 5053, 5060, 5094, 5333, 5306, 5313, 5347
4062, 5190, 5139, 5186, 5127, 5443, 5392, 5439, 5380
4063, 5088, 5127, 5111, 5033, 5341, 5380, 5364, 5286
4064, 5050, 5183, 5095, 5177, 5303, 5436, 5348, 5430
4065, 5092, 5070, 5051, 5102, 5345, 5323, 5304, 5355
4066, 5097, 5082, 5062, 5083, 5350, 5335, 5315, 5336
4067, 5106, 5101, 5075, 5090, 5359, 5354, 5328, 5343
4068, 5099, 5084, 5116, 5089, 5352, 5337, 5369, 5342
4069, 5100, 5193, 5085, 5130, 5353, 5446, 5338, 5383
4070, 5187, 5078, 5044, 5058, 5440, 5331, 5297, 5311
4071, 4988, 5071, 5164, 5065, 5241, 5324, 5417, 5318
4072, 5105, 5091, 5133, 5012, 5358, 5344, 5386, 5265
4073, 5105, 5173, 5026, 5132, 5358, 5426, 5279, 5385
4074, 5089, 5061, 5182, 5099, 5342, 5314, 5435, 5352
4075, 5185, 5191, 5120, 5060, 5438, 5444, 5373, 5313
4076, 5101, 5106, 5112, 5069, 5354, 5359, 5365, 5322
4077, 4979, 5133, 5091, 5074, 5232, 5386, 5344, 5327
4078, 5119, 5134, 5147, 5121, 5372, 5387, 5400, 5374
4079, 5070, 5092, 5180, 5176, 5323, 5345, 5433, 5429
4080, 5115, 5031, 5059, 5093, 5368, 5284, 5312, 5346
4081, 5183, 5119, 5107, 5095, 5436, 5372, 5360, 5348
4082, 5098, 5116, 5084, 5057, 5351, 5369, 5337, 5310
4083, 5103, 5192, 5120, 5197, 5356, 5445, 5373, 5450
4084, 5082, 5097, 5109, 5096, 5335, 5350, 5362, 5349
4085, 5083, 5152, 5110, 5097, 5336, 5405, 5363, 5350
4086, 5103, 5197, 5079, 5118, 5356, 5450, 5332, 5371
4087, 5193, 5078, 5187, 5085, 5446, 5331, 5440, 5338
4088, 5121, 5189, 5107, 5119, 5374, 5442, 5360, 5372
4089, 5094, 5060, 5120, 5192, 5347, 5313, 5373, 5445
4090, 5081, 5104, 5119, 5183, 5334, 5357, 5372, 5436
4091, 5095, 5107, 5108, 5102, 5348, 5360, 5361, 5355
4092, 5126, 5130, 5085, 5087, 5379, 5383, 5338, 5340
4093, 5151, 5109, 5097, 5110, 5404, 5362, 5350, 5363
4094, 5114, 5123, 5106, 5090, 5367, 5376, 5359, 5343
4095, 5142, 5117, 5129, 5141, 5395, 5370, 5382, 5394
4096, 5096, 5109, 5129, 5117, 5349, 5362, 5382, 5370
4097, 4987, 5158, 5069, 5152, 5240, 5411, 5322, 5405
4098, 5127, 5186, 5028, 5111, 5380, 5439, 5281, 5364
4099, 5136, 5112, 5106, 5123, 5389, 5365, 5359, 5376
4100, 5163, 5086, 5181, 5113, 5416, 5339, 5434, 5366
4101, 5072, 5163, 5113, 4989, 5325, 5416, 5366, 5242
4102, 5180, 5092, 5179, 5114, 5433, 5345, 5432, 5367
4103, 5118, 5079, 5089, 5116, 5371, 5332, 5342, 5369
4104, 5124, 5103, 5118, 5122, 5377, 5356, 5371, 5375
4105, 5142, 5145, 5144, 5117, 5395, 5398, 5397, 5370
4106, 5197, 5120, 5191, 5079, 5450, 5373, 5444, 5332
4107, 5104, 5194, 5134, 5119, 5357, 5447, 5387, 5372
4108, 5098, 5117, 5144, 5122, 5351, 5370, 5397, 5375
4109, 5123, 5128, 5146, 5136, 5376, 5381, 5399, 5389
4110, 5137, 5144, 5145, 5148, 5390, 5397, 5398, 5401
4111, 5137, 5148, 5143, 5195, 5390, 5401, 5396, 5448
4112, 5153, 5100, 5130, 5149, 5406, 5353, 5383, 5402
4113, 5105, 5132, 5126, 5091, 5358, 5385, 5379, 5344
4114, 5088, 5094, 5190, 5127, 5341, 5347, 5443, 5380
4115, 5026, 5172, 5154, 5132, 5279, 5425, 5407, 5385
4116, 5138, 5128, 5179, 5108, 5391, 5381, 5432, 5361
4117, 5196, 5194, 5193, 5100, 5449, 5447, 5446, 5353
4118, 5140, 5196, 5100, 5153, 5393, 5449, 5353, 5406
4119, 5131, 5192, 5103, 5124, 5384, 5445, 5356, 5377
4120, 5132, 5154, 5135, 5126, 5385, 5407, 5388, 5379
4121, 5139, 5125, 5149, 5135, 5392, 5378, 5402, 5388
4122, 5135, 5149, 5130, 5126, 5388, 5402, 5383, 5379
4123, 5136, 5146, 5141, 5151, 5389, 5399, 5394, 5404
4124, 5151, 5110, 5112, 5136, 5404, 5363, 5365, 5389
4125, 5142, 5147, 5188, 5145, 5395, 5400, 5441, 5398
4126, 5124, 5137, 5195, 5131, 5377, 5390, 5448, 5384
4127, 5189, 5121, 5150, 5138, 5442, 5374, 5403, 5391
4128, 5125, 5139, 5190, 5198, 5378, 5392, 5443, 5451
4129, 5155, 5196, 5140, 5148, 5408, 5449, 5393, 5401
4130, 5109, 5151, 5141, 5129, 5362, 5404, 5394, 5382
4131, 5150, 5142, 5141, 5146, 5403, 5395, 5394, 5399
4132, 5143, 5153, 5149, 5125, 5396, 5406, 5402, 5378
4133, 5145, 5188, 5155, 5148, 5398, 5441, 5408, 5401
4134, 5138, 5150, 5146, 5128, 5391, 5403, 5399, 5381
4135, 5148, 5140, 5153, 5143, 5401, 5393, 5406, 5396
4136, 5196, 5155, 5134, 5194, 5449, 5408, 5387, 5447
4137, 5150, 5121, 5147, 5142, 5403, 5374, 5400, 5395
4138, 5186, 5139, 5135, 5154, 5439, 5392, 5388, 5407
4139, 5172, 5028, 5186, 5154, 5425, 5281, 5439, 5407
4140, 5147, 5134, 5155, 5188, 5400, 5387, 5408, 5441
4141, 5159, 4980, 4962, 5156, 5412, 5233, 5215, 5409
4142, 5161, 4983, 4971, 5157, 5414, 5236, 5224, 5410
4143, 5170, 5055, 4980, 5159, 5423, 5308, 5233, 5412
4144, 5162, 4985, 4973, 5000, 5415, 5238, 5226, 5253
4145, 5164, 5165, 5054, 5065, 5417, 5418, 5307, 5318
4146, 5169, 5067, 5052, 5035, 5422, 5320, 5305, 5288
4147, 5173, 5105, 5012, 5014, 5426, 5358, 5265, 5267
4148, 5176, 5065, 5054, 5070, 5429, 5318, 5307, 5323
4149, 5178, 5081, 5183, 5050, 5431, 5334, 5436, 5303
4150, 5181, 5086, 5176, 5180, 5434, 5339, 5429, 5433
4151, 5184, 5079, 5191, 5068, 5437, 5332, 5444, 5321
4152, 5189, 5138, 5108, 5107, 5442, 5391, 5361, 5360
4153, 5198, 5190, 5094, 5192, 5451, 5443, 5347, 5445
4154, 5125, 5198, 5195, 5143, 5378, 5451, 5448, 5396
4155, 5198, 5192, 5131, 5195, 5451, 5445, 5384, 5448
4156, 1569, 1568, 5203, 5213, 1619, 1618, 5456, 5466
4157, 5409, 5255, 5273, 5412, 5662, 5508, 5526, 5665
4158, 5199, 5248, 1576, 1575, 5452, 5501, 1626, 1625
4159, 5216, 5250, 1579, 1578, 5469, 5503, 1629, 1628
4160, 5286, 5234, 5269, 5333, 5539, 5487, 5522, 5586
4161, 1583, 1582, 5218, 5200, 1633, 1632, 5471, 5453
4162, 5280, 5283, 5271, 5263, 5533, 5536, 5524, 5516
4163, 5252, 5220, 1588, 1587, 5505, 5473, 1638, 1637
4164, 5247, 5220, 5265, 5386, 5500, 5473, 5518, 5639
4165, 5201, 5245, 1592, 1591, 5454, 5498, 1642, 1641
4166, 5222, 5254, 1595, 1594, 5475, 5507, 1645, 1644
4167, 5368, 5301, 5296, 5272, 5621, 5554, 5549, 5525
4168, 1600, 1599, 5224, 5204, 1650, 1649, 5477, 5457
4169, 5204, 5225, 1601, 1600, 5457, 5478, 1651, 1650
4170, 5210, 5243, 1564, 1563, 5463, 5496, 1614, 1613
4171, 5211, 5244, 1566, 1565, 5464, 5497, 1616, 1615
4172, 1568, 1567, 5212, 5203, 1618, 1617, 5465, 5456
4173, 5246, 5214, 1571, 1570, 5499, 5467, 1621, 1620
4174, 1604, 1603, 5226, 5205, 1654, 1653, 5479, 5458
4175, 5220, 5252, 5267, 5265, 5473, 5505, 5520, 5518
4176, 5205, 5226, 5238, 5237, 5458, 5479, 5491, 5490
4177, 5270, 5415, 5253, 5225, 5523, 5668, 5506, 5478
4178, 5324, 5241, 5228, 5206, 5577, 5494, 5481, 5459
4179, 1561, 1560, 5208, 5209, 1611, 1610, 5461, 5462
4180, 5269, 5234, 5218, 5251, 5522, 5487, 5471, 5504
4181, 5243, 5211, 1565, 1564, 5496, 5464, 1615, 1614
4182, 5212, 5244, 5268, 5231, 5465, 5497, 5521, 5484
4183, 5243, 5210, 5240, 5278, 5496, 5463, 5493, 5531
4184, 5214, 5255, 1572, 1571, 5467, 5508, 1622, 1621
4185, 1573, 1572, 5255, 5409, 1623, 1622, 5508, 5662
4186, 1575, 1574, 5215, 5199, 1625, 1624, 5468, 5452
4187, 5248, 5259, 1577, 1576, 5501, 5512, 1627, 1626
4188, 5250, 5217, 1580, 1579, 5503, 5470, 1630, 1629
4189, 5200, 5249, 1584, 1583, 5453, 5502, 1634, 1633
4190, 5219, 5252, 1587, 1586, 5472, 5505, 1637, 1636
4191, 5344, 5379, 5340, 5327, 5597, 5632, 5593, 5580
4192, 1591, 1590, 5221, 5201, 1641, 1640, 5474, 5454
4193, 5306, 5283, 5438, 5313, 5559, 5536, 5691, 5566
4194, 5254, 5223, 1596, 1595, 5507, 5476, 1646, 1645
4195, 1598, 1597, 5257, 5410, 1648, 1647, 5510, 5663
4196, 5410, 5257, 5421, 5414, 5663, 5510, 5674, 5667
4197, 5236, 5235, 5204, 5224, 5489, 5488, 5457, 5477
4198, 5205, 5227, 1605, 1604, 5458, 5480, 1655, 1654
4199, 5227, 5206, 1606, 1605, 5480, 5459, 1656, 1655
4200, 5228, 5207, 1608, 1607, 5481, 5460, 1658, 1657
4201, 5418, 5419, 5237, 5238, 5671, 5672, 5490, 5491
4202, 5230, 5209, 5208, 5326, 5483, 5462, 5461, 5579
4203, 5249, 5258, 1585, 1584, 5502, 5511, 1635, 1634
4204, 5245, 5256, 1593, 1592, 5498, 5509, 1643, 1642
4205, 1562, 1561, 5209, 5202, 1612, 1611, 5462, 5455
4206, 5202, 5210, 1563, 1562, 5455, 5463, 1613, 1612
4207, 5213, 5246, 1570, 1569, 5466, 5499, 1620, 1619
4208, 5239, 5277, 5213, 5203, 5492, 5530, 5466, 5456
4209, 5225, 5253, 1602, 1601, 5478, 5506, 1652, 1651
4210, 5253, 5226, 1603, 1602, 5506, 5479, 1653, 1652
4211, 5206, 5228, 1607, 1606, 5459, 5481, 1657, 1656
4212, 5419, 5324, 5206, 5227, 5672, 5577, 5459, 5480
4213, 5207, 5229, 1609, 1608, 5460, 5482, 1659, 1658
4214, 5241, 5325, 5207, 5228, 5494, 5578, 5460, 5481
4215, 5229, 5208, 1560, 1609, 5482, 5461, 1610, 1659
4216, 5325, 5242, 5229, 5207, 5578, 5495, 5482, 5460
4217, 5209, 5230, 5411, 5202, 5462, 5483, 5664, 5455
4218, 5278, 5299, 5211, 5243, 5531, 5552, 5464, 5496
4219, 5244, 5212, 1567, 1566, 5497, 5465, 1617, 1616
4220, 5231, 5239, 5203, 5212, 5484, 5492, 5456, 5465
4221, 5288, 5305, 5214, 5246, 5541, 5558, 5467, 5499
4222, 5285, 5261, 5231, 5268, 5538, 5514, 5484, 5521
4223, 5233, 5292, 5199, 5215, 5486, 5545, 5452, 5468
4224, 5310, 5300, 5335, 5349, 5563, 5553, 5588, 5602
4225, 5263, 5271, 5259, 5248, 5516, 5524, 5512, 5501
4226, 5217, 5251, 1581, 1580, 5470, 5504, 1631, 1630
4227, 5251, 5218, 1582, 1581, 5504, 5471, 1632, 1631
4228, 5249, 5200, 5293, 5262, 5502, 5453, 5546, 5515
4229, 5262, 5293, 5364, 5281, 5515, 5546, 5617, 5534
4230, 5262, 5276, 5258, 5249, 5515, 5529, 5511, 5502
4231, 5220, 5247, 1589, 1588, 5473, 5500, 1639, 1638
4232, 5247, 5221, 1590, 1589, 5500, 5474, 1640, 1639
4233, 5386, 5232, 5221, 5247, 5639, 5485, 5474, 5500
4234, 5261, 5294, 5239, 5231, 5514, 5547, 5492, 5484
4235, 5264, 5274, 5256, 5245, 5517, 5527, 5509, 5498
4236, 5223, 5257, 1597, 1596, 5476, 5510, 1647, 1646
4237, 5420, 5431, 5303, 5260, 5673, 5684, 5556, 5513
4238, 5415, 5295, 5287, 5238, 5668, 5548, 5540, 5491
4239, 5205, 5237, 5419, 5227, 5458, 5490, 5672, 5480
4240, 5202, 5411, 5240, 5210, 5455, 5664, 5493, 5463
4241, 5274, 5264, 5282, 5284, 5527, 5517, 5535, 5537
4242, 5277, 5288, 5246, 5213, 5530, 5541, 5499, 5466
4243, 5232, 5291, 5201, 5221, 5485, 5544, 5454, 5474
4244, 5245, 5201, 5291, 5264, 5498, 5454, 5544, 5517
4245, 5248, 5199, 5292, 5263, 5501, 5452, 5545, 5516
4246, 5319, 5413, 5217, 5250, 5572, 5666, 5470, 5503
4247, 5234, 5293, 5200, 5218, 5487, 5546, 5453, 5471
4248, 5276, 5262, 5281, 5425, 5529, 5515, 5534, 5678
4249, 5235, 5270, 5225, 5204, 5488, 5523, 5478, 5457
4250, 5270, 5260, 5295, 5415, 5523, 5513, 5548, 5668
4251, 5296, 5309, 5223, 5254, 5549, 5562, 5476, 5507
4252, 5295, 5430, 5304, 5287, 5548, 5683, 5557, 5540
4253, 5330, 5422, 5288, 5277, 5583, 5675, 5541, 5530
4254, 5268, 5299, 5315, 5285, 5521, 5552, 5568, 5538
4255, 5278, 5240, 5405, 5336, 5531, 5493, 5658, 5589
4256, 5242, 5326, 5208, 5229, 5495, 5579, 5461, 5482
4257, 5434, 5433, 5367, 5343, 5687, 5686, 5620, 5596
4258, 5256, 5222, 1594, 1593, 5509, 5475, 1644, 1643
4259, 5259, 5216, 1578, 1577, 5512, 5469, 1628, 1627
4260, 5258, 5219, 1586, 1585, 5511, 5472, 1636, 1635
4261, 5409, 5215, 1574, 1573, 5662, 5468, 1624, 1623
4262, 5274, 5272, 5222, 5256, 5527, 5525, 5475, 5509
4263, 5410, 5224, 1599, 1598, 5663, 5477, 1649, 1648
4264, 5276, 5275, 5219, 5258, 5529, 5528, 5472, 5511
4265, 5271, 5266, 5216, 5259, 5524, 5519, 5469, 5512
4266, 5294, 5330, 5277, 5239, 5547, 5583, 5530, 5492
4267, 5424, 5280, 5263, 5292, 5677, 5533, 5516, 5545
4268, 5292, 5233, 5308, 5424, 5545, 5486, 5561, 5677
4269, 5266, 5319, 5250, 5216, 5519, 5572, 5503, 5469
4270, 5291, 5232, 5327, 5427, 5544, 5485, 5580, 5680
4271, 5272, 5296, 5254, 5222, 5525, 5549, 5507, 5475
4272, 5427, 5327, 5340, 5311, 5680, 5580, 5593, 5564
4273, 5306, 5333, 5319, 5266, 5559, 5586, 5572, 5519
4274, 5293, 5234, 5286, 5364, 5546, 5487, 5539, 5617
4275, 5267, 5275, 5279, 5426, 5520, 5528, 5532, 5679
4276, 5252, 5219, 5275, 5267, 5505, 5472, 5528, 5520
4277, 5211, 5299, 5268, 5244, 5464, 5552, 5521, 5497
4278, 5428, 5290, 5421, 5309, 5681, 5543, 5674, 5562
4279, 5282, 5427, 5311, 5297, 5535, 5680, 5564, 5550
4280, 5255, 5214, 5305, 5273, 5508, 5467, 5558, 5526
4281, 5420, 5235, 5236, 5290, 5673, 5488, 5489, 5543
4282, 5275, 5276, 5425, 5279, 5528, 5529, 5678, 5532
4283, 5261, 5285, 5300, 5302, 5514, 5538, 5553, 5555
4284, 5310, 5337, 5302, 5300, 5563, 5590, 5555, 5553
4285, 5283, 5306, 5266, 5271, 5536, 5559, 5519, 5524
4286, 5375, 5371, 5369, 5351, 5628, 5624, 5622, 5604
4287, 5284, 5368, 5272, 5274, 5537, 5621, 5525, 5527
4288, 5282, 5297, 5312, 5284, 5535, 5550, 5565, 5537
4289, 5315, 5335, 5300, 5285, 5568, 5588, 5553, 5538
4290, 5440, 5311, 5340, 5338, 5693, 5564, 5593, 5591
4291, 5324, 5419, 5418, 5417, 5577, 5672, 5671, 5670
4292, 5320, 5422, 5330, 5329, 5573, 5675, 5583, 5582
4293, 5352, 5435, 5329, 5317, 5605, 5688, 5582, 5570
4294, 5289, 5423, 5412, 5273, 5542, 5676, 5665, 5526
4295, 5421, 5290, 5236, 5414, 5674, 5543, 5489, 5667
4296, 5317, 5329, 5330, 5294, 5570, 5582, 5583, 5547
4297, 5235, 5420, 5260, 5270, 5488, 5673, 5513, 5523
4298, 5301, 5428, 5309, 5296, 5554, 5681, 5562, 5549
4299, 5368, 5346, 5316, 5301, 5621, 5599, 5569, 5554
4300, 5377, 5375, 5397, 5390, 5630, 5628, 5650, 5643
4301, 5437, 5321, 5424, 5308, 5690, 5574, 5677, 5561
4302, 5298, 5438, 5283, 5280, 5551, 5691, 5536, 5533
4303, 5299, 5278, 5336, 5315, 5552, 5531, 5589, 5568
4304, 5302, 5317, 5294, 5261, 5555, 5570, 5547, 5514
4305, 5431, 5420, 5290, 5316, 5684, 5673, 5543, 5569
4306, 5337, 5352, 5317, 5302, 5590, 5605, 5570, 5555
4307, 5430, 5348, 5355, 5304, 5683, 5601, 5608, 5557
4308, 5430, 5295, 5260, 5303, 5683, 5548, 5513, 5556
4309, 5287, 5304, 5323, 5307, 5540, 5557, 5576, 5560
4310, 5339, 5416, 5318, 5429, 5592, 5669, 5571, 5682
4311, 5273, 5305, 5320, 5289, 5526, 5558, 5573, 5542
4312, 5307, 5418, 5238, 5287, 5560, 5671, 5491, 5540
4313, 5434, 5343, 5328, 5366, 5687, 5596, 5581, 5619
4314, 5280, 5424, 5321, 5298, 5533, 5677, 5574, 5551
4315, 5423, 5314, 5437, 5308, 5676, 5567, 5690, 5561
4316, 5309, 5421, 5257, 5223, 5562, 5674, 5510, 5476
4317, 5355, 5361, 5432, 5345, 5608, 5614, 5685, 5598
4318, 5334, 5431, 5316, 5346, 5587, 5684, 5569, 5599
4319, 5286, 5333, 5347, 5341, 5539, 5586, 5600, 5594
4320, 5423, 5289, 5435, 5314, 5676, 5542, 5688, 5567
4321, 5437, 5314, 5342, 5332, 5690, 5567, 5595, 5585
4322, 5322, 5365, 5363, 5405, 5575, 5618, 5616, 5658
4323, 5316, 5290, 5428, 5301, 5569, 5543, 5681, 5554
4324, 5329, 5435, 5289, 5320, 5582, 5688, 5542, 5573
4325, 5328, 5326, 5242, 5366, 5581, 5579, 5495, 5619
4326, 5413, 5269, 5251, 5217, 5666, 5522, 5504, 5470
4327, 5269, 5413, 5319, 5333, 5522, 5666, 5572, 5586
4328, 5444, 5438, 5298, 5321, 5697, 5691, 5551, 5574
4329, 5326, 5328, 5354, 5230, 5579, 5581, 5607, 5483
4330, 5230, 5354, 5322, 5411, 5483, 5607, 5575, 5664
4331, 5357, 5331, 5446, 5447, 5610, 5584, 5699, 5700
4332, 5416, 5325, 5241, 5318, 5669, 5578, 5494, 5571
4333, 5427, 5282, 5264, 5291, 5680, 5535, 5517, 5544
4334, 5367, 5432, 5381, 5376, 5620, 5685, 5634, 5629
4335, 5331, 5346, 5312, 5297, 5584, 5599, 5565, 5550
4336, 5346, 5331, 5357, 5334, 5599, 5584, 5610, 5587
4337, 5349, 5370, 5351, 5310, 5602, 5623, 5604, 5563
4338, 5333, 5306, 5313, 5347, 5586, 5559, 5566, 5600
4339, 5443, 5392, 5439, 5380, 5696, 5645, 5692, 5633
4340, 5341, 5380, 5364, 5286, 5594, 5633, 5617, 5539
4341, 5303, 5436, 5348, 5430, 5556, 5689, 5601, 5683
4342, 5345, 5323, 5304, 5355, 5598, 5576, 5557, 5608
4343, 5350, 5335, 5315, 5336, 5603, 5588, 5568, 5589
4344, 5359, 5354, 5328, 5343, 5612, 5607, 5581, 5596
4345, 5352, 5337, 5369, 5342, 5605, 5590, 5622, 5595
4346, 5353, 5446, 5338, 5383, 5606, 5699, 5591, 5636
4347, 5440, 5331, 5297, 5311, 5693, 5584, 5550, 5564
4348, 5241, 5324, 5417, 5318, 5494, 5577, 5670, 5571
4349, 5358, 5344, 5386, 5265, 5611, 5597, 5639, 5518
4350, 5358, 5426, 5279, 5385, 5611, 5679, 5532, 5638
4351, 5342, 5314, 5435, 5352, 5595, 5567, 5688, 5605
4352, 5438, 5444, 5373, 5313, 5691, 5697, 5626, 5566
4353, 5354, 5359, 5365, 5322, 5607, 5612, 5618, 5575
4354, 5232, 5386, 5344, 5327, 5485, 5639, 5597, 5580
4355, 5372, 5387, 5400, 5374, 5625, 5640, 5653, 5627
4356, 5323, 5345, 5433, 5429, 5576, 5598, 5686, 5682
4357, 5368, 5284, 5312, 5346, 5621, 5537, 5565, 5599
4358, 5436, 5372, 5360, 5348, 5689, 5625, 5613, 5601
4359, 5351, 5369, 5337, 5310, 5604, 5622, 5590, 5563
4360, 5356, 5445, 5373, 5450, 5609, 5698, 5626, 5703
4361, 5335, 5350, 5362, 5349, 5588, 5603, 5615, 5602
4362, 5336, 5405, 5363, 5350, 5589, 5658, 5616, 5603
4363, 5356, 5450, 5332, 5371, 5609, 5703, 5585, 5624
4364, 5446, 5331, 5440, 5338, 5699, 5584, 5693, 5591
4365, 5374, 5442, 5360, 5372, 5627, 5695, 5613, 5625
4366, 5347, 5313, 5373, 5445, 5600, 5566, 5626, 5698
4367, 5334, 5357, 5372, 5436, 5587, 5610, 5625, 5689
4368, 5348, 5360, 5361, 5355, 5601, 5613, 5614, 5608
4369, 5379, 5383, 5338, 5340, 5632, 5636, 5591, 5593
4370, 5404, 5362, 5350, 5363, 5657, 5615, 5603, 5616
4371, 5367, 5376, 5359, 5343, 5620, 5629, 5612, 5596
4372, 5395, 5370, 5382, 5394, 5648, 5623, 5635, 5647
4373, 5349, 5362, 5382, 5370, 5602, 5615, 5635, 5623
4374, 5240, 5411, 5322, 5405, 5493, 5664, 5575, 5658
4375, 5380, 5439, 5281, 5364, 5633, 5692, 5534, 5617
4376, 5389, 5365, 5359, 5376, 5642, 5618, 5612, 5629
4377, 5416, 5339, 5434, 5366, 5669, 5592, 5687, 5619
4378, 5325, 5416, 5366, 5242, 5578, 5669, 5619, 5495
4379, 5433, 5345, 5432, 5367, 5686, 5598, 5685, 5620
4380, 5371, 5332, 5342, 5369, 5624, 5585, 5595, 5622
4381, 5377, 5356, 5371, 5375, 5630, 5609, 5624, 5628
4382, 5395, 5398, 5397, 5370, 5648, 5651, 5650, 5623
4383, 5450, 5373, 5444, 5332, 5703, 5626, 5697, 5585
4384, 5357, 5447, 5387, 5372, 5610, 5700, 5640, 5625
4385, 5351, 5370, 5397, 5375, 5604, 5623, 5650, 5628
4386, 5376, 5381, 5399, 5389, 5629, 5634, 5652, 5642
4387, 5390, 5397, 5398, 5401, 5643, 5650, 5651, 5654
4388, 5390, 5401, 5396, 5448, 5643, 5654, 5649, 5701
4389, 5406, 5353, 5383, 5402, 5659, 5606, 5636, 5655
4390, 5358, 5385, 5379, 5344, 5611, 5638, 5632, 5597
4391, 5341, 5347, 5443, 5380, 5594, 5600, 5696, 5633
4392, 5279, 5425, 5407, 5385, 5532, 5678, 5660, 5638
4393, 5391, 5381, 5432, 5361, 5644, 5634, 5685, 5614
4394, 5449, 5447, 5446, 5353, 5702, 5700, 5699, 5606
4395, 5393, 5449, 5353, 5406, 5646, 5702, 5606, 5659
4396, 5384, 5445, 5356, 5377, 5637, 5698, 5609, 5630
4397, 5385, 5407, 5388, 5379, 5638, 5660, 5641, 5632
4398, 5392, 5378, 5402, 5388, 5645, 5631, 5655, 5641
4399, 5388, 5402, 5383, 5379, 5641, 5655, 5636, 5632
4400, 5389, 5399, 5394, 5404, 5642, 5652, 5647, 5657
4401, 5404, 5363, 5365, 5389, 5657, 5616, 5618, 5642
4402, 5395, 5400, 5441, 5398, 5648, 5653, 5694, 5651
4403, 5377, 5390, 5448, 5384, 5630, 5643, 5701, 5637
4404, 5442, 5374, 5403, 5391, 5695, 5627, 5656, 5644
4405, 5378, 5392, 5443, 5451, 5631, 5645, 5696, 5704
4406, 5408, 5449, 5393, 5401, 5661, 5702, 5646, 5654
4407, 5362, 5404, 5394, 5382, 5615, 5657, 5647, 5635
4408, 5403, 5395, 5394, 5399, 5656, 5648, 5647, 5652
4409, 5396, 5406, 5402, 5378, 5649, 5659, 5655, 5631
4410, 5398, 5441, 5408, 5401, 5651, 5694, 5661, 5654
4411, 5391, 5403, 5399, 5381, 5644, 5656, 5652, 5634
4412, 5401, 5393, 5406, 5396, 5654, 5646, 5659, 5649
4413, 5449, 5408, 5387, 5447, 5702, 5661, 5640, 5700
4414, 5403, 5374, 5400, 5395, 5656, 5627, 5653, 5648
4415, 5439, 5392, 5388, 5407, 5692, 5645, 5641, 5660
4416, 5425, 5281, 5439, 5407, 5678, 5534, 5692, 5660
4417, 5400, 5387, 5408, 5441, 5653, 5640, 5661, 5694
4418, 5412, 5233, 5215, 5409, 5665, 5486, 5468, 5662
4419, 5414, 5236, 5224, 5410, 5667, 5489, 5477, 5663
4420, 5423, 5308, 5233, 5412, 5676, 5561, 5486, 5665
4421, 5415, 5238, 5226, 5253, 5668, 5491, 5479, 5506
4422, 5417, 5418, 5307, 5318, 5670, 5671, 5560, 5571
4423, 5422, 5320, 5305, 5288, 5675, 5573, 5558, 5541
4424, 5426, 5358, 5265, 5267, 5679, 5611, 5518, 5520
4425, 5429, 5318, 5307, 5323, 5682, 5571, 5560, 5576
4426, 5431, 5334, 5436, 5303, 5684, 5587, 5689, 5556
4427, 5434, 5339, 5429, 5433, 5687, 5592, 5682, 5686
4428, 5437, 5332, 5444, 5321, 5690, 5585, 5697, 5574
4429, 5442, 5391, 5361, 5360, 5695, 5644, 5614, 5613
4430, 5451, 5443, 5347, 5445, 5704, 5696, 5600, 5698
4431, 5378, 5451, 5448, 5396, 5631, 5704, 5701, 5649
4432, 5451, 5445, 5384, 5448, 5704, 5698, 5637, 5701
4433, 1619, 1618, 5456, 5466, 1669, 1668, 5709, 5719
4434, 5662, 5508, 5526, 5665, 5915, 5761, 5779, 5918
4435, 5452, 5501, 1626, 1625, 5705, 5754, 1676, 1675
4436, 5469, 5503, 1629, 1628, 5722, 5756, 1679, 1678
4437, 5539, 5487, 5522, 5586, 5792, 5740, 5775, 5839
4438, 1633, 1632, 5471, 5453, 1683, 1682, 5724, 5706
4439, 5533, 5536, 5524, 5516, 5786, 5789, 5777, 5769
4440, 5505, 5473, 1638, 1637, 5758, 5726, 1688, 1687
4441, 5500, 5473, 5518, 5639, 5753, 5726, 5771, 5892
4442, 5454, 5498, 1642, 1641, 5707, 5751, 1692, 1691
4443, 5475, 5507, 1645, 1644, 5728, 5760, 1695, 1694
4444, 5621, 5554, 5549, 5525, 5874, 5807, 5802, 5778
4445, 1650, 1649, 5477, 5457, 1700, 1699, 5730, 5710
4446, 5457, 5478, 1651, 1650, 5710, 5731, 1701, 1700
4447, 5463, 5496, 1614, 1613, 5716, 5749, 1664, 1663
4448, 5464, 5497, 1616, 1615, 5717, 5750, 1666, 1665
4449, 1618, 1617, 5465, 5456, 1668, 1667, 5718, 5709
4450, 5499, 5467, 1621, 1620, 5752, 5720, 1671, 1670
4451, 1654, 1653, 5479, 5458, 1704, 1703, 5732, 5711
4452, 5473, 5505, 5520, 5518, 5726, 5758, 5773, 5771
4453, 5458, 5479, 5491, 5490, 5711, 5732, 5744, 5743
4454, 5523, 5668, 5506, 5478, 5776, 5921, 5759, 5731
4455, 5577, 5494, 5481, 5459, 5830, 5747, 5734, 5712
4456, 1611, 1610, 5461, 5462, 1661, 1660, 5714, 5715
4457, 5522, 5487, 5471, 5504, 5775, 5740, 5724, 5757
4458, 5496, 5464, 1615, 1614, 5749, 5717, 1665, 1664
4459, 5465, 5497, 5521, 5484, 5718, 5750, 5774, 5737
4460, 5496, 5463, 5493, 5531, 5749, 5716, 5746, 5784
4461, 5467, 5508, 1622, 1621, 5720, 5761, 1672, 1671
4462, 1623, 1622, 5508, 5662, 1673, 1672, 5761, 5915
4463, 1625, 1624, 5468, 5452, 1675, 1674, 5721, 5705
4464, 5501, 5512, 1627, 1626, 5754, 5765, 1677, 1676
4465, 5503, 5470, 1630, 1629, 5756, 5723, 1680, 1679
4466, 5453, 5502, 1634, 1633, 5706, 5755, 1684, 1683
4467, 5472, 5505, 1637, 1636, 5725, 5758, 1687, 1686
4468, 5597, 5632, 5593, 5580, 5850, 5885, 5846, 5833
4469, 1641, 1640, 5474, 5454, 1691, 1690, 5727, 5707
4470, 5559, 5536, 5691, 5566, 5812, 5789, 5944, 5819
4471, 5507, 5476, 1646, 1645, 5760, 5729, 1696, 1695
4472, 1648, 1647, 5510, 5663, 1698, 1697, 5763, 5916
4473, 5663, 5510, 5674, 5667, 5916, 5763, 5927, 5920
4474, 5489, 5488, 5457, 5477, 5742, 5741, 5710, 5730
4475, 5458, 5480, 1655, 1654, 5711, 5733, 1705, 1704
4476, 5480, 5459, 1656, 1655, 5733, 5712, 1706, 1705
4477, 5481, 5460, 1658, 1657, 5734, 5713, 1708, 1707
4478, 5671, 5672, 5490, 5491, 5924, 5925, 5743, 5744
4479, 5483, 5462, 5461, 5579, 5736, 5715, 5714, 5832
4480, 5502, 5511, 1635, 1634, 5755, 5764, 1685, 1684
4481, 5498, 5509, 1643, 1642, 5751, 5762, 1693, 1692
4482, 1612, 1611, 5462, 5455, 1662, 1661, 5715, 5708
4483, 5455, 5463, 1613, 1612, 5708, 5716, 1663, 1662
4484, 5466, 5499, 1620, 1619, 5719, 5752, 1670, 1669
4485, 5492, 5530, 5466, 5456, 5745, 5783, 5719, 5709
4486, 5478, 5506, 1652, 1651, 5731, 5759, 1702, 1701
4487, 5506, 5479, 1653, 1652, 5759, 5732, 1703, 1702
4488, 5459, 5481, 1657, 1656, 5712, 5734, 1707, 1706
4489, 5672, 5577, 5459, 5480, 5925, 5830, 5712, 5733
4490, 5460, 5482, 1659, 1658, 5713, 5735, 1709, 1708
4491, 5494, 5578, 5460, 5481, 5747, 5831, 5713, 5734
4492, 5482, 5461, 1610, 1659, 5735, 5714, 1660, 1709
4493, 5578, 5495, 5482, 5460, 5831, 5748, 5735, 5713
4494, 5462, 5483, 5664, 5455, 5715, 5736, 5917, 5708
4495, 5531, 5552, 5464, 5496, 5784, 5805, 5717, 5749
4496, 5497, 5465, 1617, 1616, 5750, 5718, 1667, 1666
4497, 5484, 5492, 5456, 5465, 5737, 5745, 5709, 5718
4498, 5541, 5558, 5467, 5499, 5794, 5811, 5720, 5752
4499, 5538, 5514, 5484, 5521, 5791, 5767, 5737, 5774
4500, 5486, 5545, 5452, 5468, 5739, 5798, 5705, 5721
4501, 5563, 5553, 5588, 5602, 5816, 5806, 5841, 5855
4502, 5516, 5524, 5512, 5501, 5769, 5777, 5765, 5754
4503, 5470, 5504, 1631, 1630, 5723, 5757, 1681, 1680
4504, 5504, 5471, 1632, 1631, 5757, 5724, 1682, 1681
4505, 5502, 5453, 5546, 5515, 5755, 5706, 5799, 5768
4506, 5515, 5546, 5617, 5534, 5768, 5799, 5870, 5787
4507, 5515, 5529, 5511, 5502, 5768, 5782, 5764, 5755
4508, 5473, 5500, 1639, 1638, 5726, 5753, 1689, 1688
4509, 5500, 5474, 1640, 1639, 5753, 5727, 1690, 1689
4510, 5639, 5485, 5474, 5500, 5892, 5738, 5727, 5753
4511, 5514, 5547, 5492, 5484, 5767, 5800, 5745, 5737
4512, 5517, 5527, 5509, 5498, 5770, 5780, 5762, 5751
4513, 5476, 5510, 1647, 1646, 5729, 5763, 1697, 1696
4514, 5673, 5684, 5556, 5513, 5926, 5937, 5809, 5766
4515, 5668, 5548, 5540, 5491, 5921, 5801, 5793, 5744
4516, 5458, 5490, 5672, 5480, 5711, 5743, 5925, 5733
4517, 5455, 5664, 5493, 5463, 5708, 5917, 5746, 5716
4518, 5527, 5517, 5535, 5537, 5780, 5770, 5788, 5790
4519, 5530, 5541, 5499, 5466, 5783, 5794, 5752, 5719
4520, 5485, 5544, 5454, 5474, 5738, 5797, 5707, 5727
4521, 5498, 5454, 5544, 5517, 5751, 5707, 5797, 5770
4522, 5501, 5452, 5545, 5516, 5754, 5705, 5798, 5769
4523, 5572, 5666, 5470, 5503, 5825, 5919, 5723, 5756
4524, 5487, 5546, 5453, 5471, 5740, 5799, 5706, 5724
4525, 5529, 5515, 5534, 5678, 5782, 5768, 5787, 5931
4526, 5488, 5523, 5478, 5457, 5741, 5776, 5731, 5710
4527, 5523, 5513, 5548, 5668, 5776, 5766, 5801, 5921
4528, 5549, 5562, 5476, 5507, 5802, 5815, 5729, 5760
4529, 5548, 5683, 5557, 5540, 5801, 5936, 5810, 5793
4530, 5583, 5675, 5541, 5530, 5836, 5928, 5794, 5783
4531, 5521, 5552, 5568, 5538, 5774, 5805, 5821, 5791
4532, 5531, 5493, 5658, 5589, 5784, 5746, 5911, 5842
4533, 5495, 5579, 5461, 5482, 5748, 5832, 5714, 5735
4534, 5687, 5686, 5620, 5596, 5940, 5939, 5873, 5849
4535, 5509, 5475, 1644, 1643, 5762, 5728, 1694, 1693
4536, 5512, 5469, 1628, 1627, 5765, 5722, 1678, 1677
4537, 5511, 5472, 1636, 1635, 5764, 5725, 1686, 1685
4538, 5662, 5468, 1624, 1623, 5915, 5721, 1674, 1673
4539, 5527, 5525, 5475, 5509, 5780, 5778, 5728, 5762
4540, 5663, 5477, 1649, 1648, 5916, 5730, 1699, 1698
4541, 5529, 5528, 5472, 5511, 5782, 5781, 5725, 5764
4542, 5524, 5519, 5469, 5512, 5777, 5772, 5722, 5765
4543, 5547, 5583, 5530, 5492, 5800, 5836, 5783, 5745
4544, 5677, 5533, 5516, 5545, 5930, 5786, 5769, 5798
4545, 5545, 5486, 5561, 5677, 5798, 5739, 5814, 5930
4546, 5519, 5572, 5503, 5469, 5772, 5825, 5756, 5722
4547, 5544, 5485, 5580, 5680, 5797, 5738, 5833, 5933
4548, 5525, 5549, 5507, 5475, 5778, 5802, 5760, 5728
4549, 5680, 5580, 5593, 5564, 5933, 5833, 5846, 5817
4550, 5559, 5586, 5572, 5519, 5812, 5839, 5825, 5772
4551, 5546, 5487, 5539, 5617, 5799, 5740, 5792, 5870
4552, 5520, 5528, 5532, 5679, 5773, 5781, 5785, 5932
4553, 5505, 5472, 5528, 5520, 5758, 5725, 5781, 5773
4554, 5464, 5552, 5521, 5497, 5717, 5805, 5774, 5750
4555, 5681, 5543, 5674, 5562, 5934, 5796, 5927, 5815
4556, 5535, 5680, 5564, 5550, 5788, 5933, 5817, 5803
4557, 5508, 5467, 5558, 5526, 5761, 5720, 5811, 5779
4558, 5673, 5488, 5489, 5543, 5926, 5741, 5742, 5796
4559, 5528, 5529, 5678, 5532, 5781, 5782, 5931, 5785
4560, 5514, 5538, 5553, 5555, 5767, 5791, 5806, 5808
4561, 5563, 5590, 5555, 5553, 5816, 5843, 5808, 5806
4562, 5536, 5559, 5519, 5524, 5789, 5812, 5772, 5777
4563, 5628, 5624, 5622, 5604, 5881, 5877, 5875, 5857
4564, 5537, 5621, 5525, 5527, 5790, 5874, 5778, 5780
4565, 5535, 5550, 5565, 5537, 5788, 5803, 5818, 5790
4566, 5568, 5588, 5553, 5538, 5821, 5841, 5806, 5791
4567, 5693, 5564, 5593, 5591, 5946, 5817, 5846, 5844
4568, 5577, 5672, 5671, 5670, 5830, 5925, 5924, 5923
4569, 5573, 5675, 5583, 5582, 5826, 5928, 5836, 5835
4570, 5605, 5688, 5582, 5570, 5858, 5941, 5835, 5823
4571, 5542, 5676, 5665, 5526, 5795, 5929, 5918, 5779
4572, 5674, 5543, 5489, 5667, 5927, 5796, 5742, 5920
4573, 5570, 5582, 5583, 5547, 5823, 5835, 5836, 5800
4574, 5488, 5673, 5513, 5523, 5741, 5926, 5766, 5776
4575, 5554, 5681, 5562, 5549, 5807, 5934, 5815, 5802
4576, 5621, 5599, 5569, 5554, 5874, 5852, 5822, 5807
4577, 5630, 5628, 5650, 5643, 5883, 5881, 5903, 5896
4578, 5690, 5574, 5677, 5561, 5943, 5827, 5930, 5814
4579, 5551, 5691, 5536, 5533, 5804, 5944, 5789, 5786
4580, 5552, 5531, 5589, 5568, 5805, 5784, 5842, 5821
4581, 5555, 5570, 5547, 5514, 5808, 5823, 5800, 5767
4582, 5684, 5673, 5543, 5569, 5937, 5926, 5796, 5822
4583, 5590, 5605, 5570, 5555, 5843, 5858, 5823, 5808
4584, 5683, 5601, 5608, 5557, 5936, 5854, 5861, 5810
4585, 5683, 5548, 5513, 5556, 5936, 5801, 5766, 5809
4586, 5540, 5557, 5576, 5560, 5793, 5810, 5829, 5813
4587, 5592, 5669, 5571, 5682, 5845, 5922, 5824, 5935
4588, 5526, 5558, 5573, 5542, 5779, 5811, 5826, 5795
4589, 5560, 5671, 5491, 5540, 5813, 5924, 5744, 5793
4590, 5687, 5596, 5581, 5619, 5940, 5849, 5834, 5872
4591, 5533, 5677, 5574, 5551, 5786, 5930, 5827, 5804
4592, 5676, 5567, 5690, 5561, 5929, 5820, 5943, 5814
4593, 5562, 5674, 5510, 5476, 5815, 5927, 5763, 5729
4594, 5608, 5614, 5685, 5598, 5861, 5867, 5938, 5851
4595, 5587, 5684, 5569, 5599, 5840, 5937, 5822, 5852
4596, 5539, 5586, 5600, 5594, 5792, 5839, 5853, 5847
4597, 5676, 5542, 5688, 5567, 5929, 5795, 5941, 5820
4598, 5690, 5567, 5595, 5585, 5943, 5820, 5848, 5838
4599, 5575, 5618, 5616, 5658, 5828, 5871, 5869, 5911
4600, 5569, 5543, 5681, 5554, 5822, 5796, 5934, 5807
4601, 5582, 5688, 5542, 5573, 5835, 5941, 5795, 5826
4602, 5581, 5579, 5495, 5619, 5834, 5832, 5748, 5872
4603, 5666, 5522, 5504, 5470, 5919, 5775, 5757, 5723
4604, 5522, 5666, 5572, 5586, 5775, 5919, 5825, 5839
4605, 5697, 5691, 5551, 5574, 5950, 5944, 5804, 5827
4606, 5579, 5581, 5607, 5483, 5832, 5834, 5860, 5736
4607, 5483, 5607, 5575, 5664, 5736, 5860, 5828, 5917
4608, 5610, 5584, 5699, 5700, 5863, 5837, 5952, 5953
4609, 5669, 5578, 5494, 5571, 5922, 5831, 5747, 5824
4610, 5680, 5535, 5517, 5544, 5933, 5788, 5770, 5797
4611, 5620, 5685, 5634, 5629, 5873, 5938, 5887, 5882
4612, 5584, 5599, 5565, 5550, 5837, 5852, 5818, 5803
4613, 5599, 5584, 5610, 5587, 5852, 5837, 5863, 5840
4614, 5602, 5623, 5604, 5563, 5855, 5876, 5857, 5816
4615, 5586, 5559, 5566, 5600, 5839, 5812, 5819, 5853
4616, 5696, 5645, 5692, 5633, 5949, 5898, 5945, 5886
4617, 5594, 5633, 5617, 5539, 5847, 5886, 5870, 5792
4618, 5556, 5689, 5601, 5683, 5809, 5942, 5854, 5936
4619, 5598, 5576, 5557, 5608, 5851, 5829, 5810, 5861
4620, 5603, 5588, 5568, 5589, 5856, 5841, 5821, 5842
4621, 5612, 5607, 5581, 5596, 5865, 5860, 5834, 5849
4622, 5605, 5590, 5622, 5595, 5858, 5843, 5875, 5848
4623, 5606, 5699, 5591, 5636, 5859, 5952, 5844, 5889
4624, 5693, 5584, 5550, 5564, 5946, 5837, 5803, 5817
4625, 5494, 5577, 5670, 5571, 5747, 5830, 5923, 5824
4626, 5611, 5597, 5639, 5518, 5864, 5850, 5892, 5771
4627, 5611, 5679, 5532, 5638, 5864, 5932, 5785, 5891
4628, 5595, 5567, 5688, 5605, 5848, 5820, 5941, 5858
4629, 5691, 5697, 5626, 5566, 5944, 5950, 5879, 5819
4630, 5607, 5612, 5618, 5575, 5860, 5865, 5871, 5828
4631, 5485, 5639, 5597, 5580, 5738, 5892, 5850, 5833
4632, 5625, 5640, 5653, 5627, 5878, 5893, 5906, 5880
4633, 5576, 5598, 5686, 5682, 5829, 5851, 5939, 5935
4634, 5621, 5537, 5565, 5599, 5874, 5790, 5818, 5852
4635, 5689, 5625, 5613, 5601, 5942, 5878, 5866, 5854
4636, 5604, 5622, 5590, 5563, 5857, 5875, 5843, 5816
4637, 5609, 5698, 5626, 5703, 5862, 5951, 5879, 5956
4638, 5588, 5603, 5615, 5602, 5841, 5856, 5868, 5855
4639, 5589, 5658, 5616, 5603, 5842, 5911, 5869, 5856
4640, 5609, 5703, 5585, 5624, 5862, 5956, 5838, 5877
4641, 5699, 5584, 5693, 5591, 5952, 5837, 5946, 5844
4642, 5627, 5695, 5613, 5625, 5880, 5948, 5866, 5878
4643, 5600, 5566, 5626, 5698, 5853, 5819, 5879, 5951
4644, 5587, 5610, 5625, 5689, 5840, 5863, 5878, 5942
4645, 5601, 5613, 5614, 5608, 5854, 5866, 5867, 5861
4646, 5632, 5636, 5591, 5593, 5885, 5889, 5844, 5846
4647, 5657, 5615, 5603, 5616, 5910, 5868, 5856, 5869
4648, 5620, 5629, 5612, 5596, 5873, 5882, 5865, 5849
4649, 5648, 5623, 5635, 5647, 5901, 5876, 5888, 5900
4650, 5602, 5615, 5635, 5623, 5855, 5868, 5888, 5876
4651, 5493, 5664, 5575, 5658, 5746, 5917, 5828, 5911
4652, 5633, 5692, 5534, 5617, 5886, 5945, 5787, 5870
4653, 5642, 5618, 5612, 5629, 5895, 5871, 5865, 5882
4654, 5669, 5592, 5687, 5619, 5922, 5845, 5940, 5872
4655, 5578, 5669, 5619, 5495, 5831, 5922, 5872, 5748
4656, 5686, 5598, 5685, 5620, 5939, 5851, 5938, 5873
4657, 5624, 5585, 5595, 5622, 5877, 5838, 5848, 5875
4658, 5630, 5609, 5624, 5628, 5883, 5862, 5877, 5881
4659, 5648, 5651, 5650, 5623, 5901, 5904, 5903, 5876
4660, 5703, 5626, 5697, 5585, 5956, 5879, 5950, 5838
4661, 5610, 5700, 5640, 5625, 5863, 5953, 5893, 5878
4662, 5604, 5623, 5650, 5628, 5857, 5876, 5903, 5881
4663, 5629, 5634, 5652, 5642, 5882, 5887, 5905, 5895
4664, 5643, 5650, 5651, 5654, 5896, 5903, 5904, 5907
4665, 5643, 5654, 5649, 5701, 5896, 5907, 5902, 5954
4666, 5659, 5606, 5636, 5655, 5912, 5859, 5889, 5908
4667, 5611, 5638, 5632, 5597, 5864, 5891, 5885, 5850
4668, 5594, 5600, 5696, 5633, 5847, 5853, 5949, 5886
4669, 5532, 5678, 5660, 5638, 5785, 5931, 5913, 5891
4670, 5644, 5634, 5685, 5614, 5897, 5887, 5938, 5867
4671, 5702, 5700, 5699, 5606, 5955, 5953, 5952, 5859
4672, 5646, 5702, 5606, 5659, 5899, 5955, 5859, 5912
4673, 5637, 5698, 5609, 5630, 5890, 5951, 5862, 5883
4674, 5638, 5660, 5641, 5632, 5891, 5913, 5894, 5885
4675, 5645, 5631, 5655, 5641, 5898, 5884, 5908, 5894
4676, 5641, 5655, 5636, 5632, 5894, 5908, 5889, 5885
4677, 5642, 5652, 5647, 5657, 5895, 5905, 5900, 5910
4678, 5657, 5616, 5618, 5642, 5910, 5869, 5871, 5895
4679, 5648, 5653, 5694, 5651, 5901, 5906, 5947, 5904
4680, 5630, 5643, 5701, 5637, 5883, 5896, 5954, 5890
4681, 5695, 5627, 5656, 5644, 5948, 5880, 5909, 5897
4682, 5631, 5645, 5696, 5704, 5884, 5898, 5949, 5957
4683, 5661, 5702, 5646, 5654, 5914, 5955, 5899, 5907
4684, 5615, 5657, 5647, 5635, 5868, 5910, 5900, 5888
4685, 5656, 5648, 5647, 5652, 5909, 5901, 5900, 5905
4686, 5649, 5659, 5655, 5631, 5902, 5912, 5908, 5884
4687, 5651, 5694, 5661, 5654, 5904, 5947, 5914, 5907
4688, 5644, 5656, 5652, 5634, 5897, 5909, 5905, 5887
4689, 5654, 5646, 5659, 5649, 5907, 5899, 5912, 5902
4690, 5702, 5661, 5640, 5700, 5955, 5914, 5893, 5953
4691, 5656, 5627, 5653, 5648, 5909, 5880, 5906, 5901
4692, 5692, 5645, 5641, 5660, 5945, 5898, 5894, 5913
4693, 5678, 5534, 5692, 5660, 5931, 5787, 5945, 5913
4694, 5653, 5640, 5661, 5694, 5906, 5893, 5914, 5947
4695, 5665, 5486, 5468, 5662, 5918, 5739, 5721, 5915
4696, 5667, 5489, 5477, 5663, 5920, 5742, 5730, 5916
4697, 5676, 5561, 5486, 5665, 5929, 5814, 5739, 5918
4698, 5668, 5491, 5479, 5506, 5921, 5744, 5732, 5759
4699, 5670, 5671, 5560, 5571, 5923, 5924, 5813, 5824
4700, 5675, 5573, 5558, 5541, 5928, 5826, 5811, 5794
4701, 5679, 5611, 5518, 5520, 5932, 5864, 5771, 5773
4702, 5682, 5571, 5560, 5576, 5935, 5824, 5813, 5829
4703, 5684, 5587, 5689, 5556, 5937, 5840, 5942, 5809
4704, 5687, 5592, 5682, 5686, 5940, 5845, 5935, 5939
4705, 5690, 5585, 5697, 5574, 5943, 5838, 5950, 5827
4706, 5695, 5644, 5614, 5613, 5948, 5897, 5867, 5866
4707, 5704, 5696, 5600, 5698, 5957, 5949, 5853, 5951
4708, 5631, 5704, 5701, 5649, 5884, 5957, 5954, 5902
4709, 5704, 5698, 5637, 5701, 5957, 5951, 5890, 5954
4710, 1669, 1668, 5709, 5719, 1719, 1718, 5962, 5972
4711, 5915, 5761, 5779, 5918, 6168, 6014, 6032, 6171
4712, 5705, 5754, 1676, 1675, 5958, 6007, 1726, 1725
4713, 5722, 5756, 1679, 1678, 5975, 6009, 1729, 1728
4714, 5792, 5740, 5775, 5839, 6045, 5993, 6028, 6092
4715, 1683, 1682, 5724, 5706, 1733, 1732, 5977, 5959
4716, 5786, 5789, 5777, 5769, 6039, 6042, 6030, 6022
4717, 5758, 5726, 1688, 1687, 6011, 5979, 1738, 1737
4718, 5753, 5726, 5771, 5892, 6006, 5979, 6024, 6145
4719, 5707, 5751, 1692, 1691, 5960, 6004, 1742, 1741
4720, 5728, 5760, 1695, 1694, 5981, 6013, 1745, 1744
4721, 5874, 5807, 5802, 5778, 6127, 6060, 6055, 6031
4722, 1700, 1699, 5730, 5710, 1750, 1749, 5983, 5963
4723, 5710, 5731, 1701, 1700, 5963, 5984, 1751, 1750
4724, 5716, 5749, 1664, 1663, 5969, 6002, 1714, 1713
4725, 5717, 5750, 1666, 1665, 5970, 6003, 1716, 1715
4726, 1668, 1667, 5718, 5709, 1718, 1717, 5971, 5962
4727, 5752, 5720, 1671, 1670, 6005, 5973, 1721, 1720
4728, 1704, 1703, 5732, 5711, 1754, 1753, 5985, 5964
4729, 5726, 5758, 5773, 5771, 5979, 6011, 6026, 6024
4730, 5711, 5732, 5744, 5743, 5964, 5985, 5997, 5996
4731, 5776, 5921, 5759, 5731, 6029, 6174, 6012, 5984
4732, 5830, 5747, 5734, 5712, 6083, 6000, 5987, 5965
4733, 1661, 1660, 5714, 5715, 1711, 1710, 5967, 5968
4734, 5775, 5740, 5724, 5757, 6028, 5993, 5977, 6010
4735, 5749, 5717, 1665, 1664, 6002, 5970, 1715, 1714
4736, 5718, 5750, 5774, 5737, 5971, 6003, 6027, 5990
4737, 5749, 5716, 5746, 5784, 6002, 5969, 5999, 6037
4738, 5720, 5761, 1672, 1671, 5973, 6014, 1722, 1721
4739, 1673, 1672, 5761, 5915, 1723, 1722, 6014, 6168
4740, 1675, 1674, 5721, 5705, 1725, 1724, 5974, 5958
4741, 5754, 5765, 1677, 1676, 6007, 6018, 1727, 1726
4742, 5756, 5723, 1680, 1679, 6009, 5976, 1730, 1729
4743, 5706, 5755, 1684, 1683, 5959, 6008, 1734, 1733
4744, 5725, 5758, 1687, 1686, 5978, 6011, 1737, 1736
4745, 5850, 5885, 5846, 5833, 6103, 6138, 6099, 6086
4746, 1691, 1690, 5727, 5707, 1741, 1740, 5980, 5960
4747, 5812, 5789, 5944, 5819, 6065, 6042, 6197, 6072
4748, 5760, 5729, 1696, 1695, 6013, 5982, 1746, 1745
4749, 1698, 1697, 5763, 5916, 1748, 1747, 6016, 6169
4750, 5916, 5763, 5927, 5920, 6169, 6016, 6180, 6173
4751, 5742, 5741, 5710, 5730, 5995, 5994, 5963, 5983
4752, 5711, 5733, 1705, 1704, 5964, 5986, 1755, 1754
4753, 5733, 5712, 1706, 1705, 5986, 5965, 1756, 1755
4754, 5734, 5713, 1708, 1707, 5987, 5966, 1758, 1757
4755, 5924, 5925, 5743, 5744, 6177, 6178, 5996, 5997
4756, 5736, 5715, 5714, 5832, 5989, 5968, 5967, 6085
4757, 5755, 5764, 1685, 1684, 6008, 6017, 1735, 1734
4758, 5751, 5762, 1693, 1692, 6004, 6015, 1743, 1742
4759, 1662, 1661, 5715, 5708, 1712, 1711, 5968, 5961
4760, 5708, 5716, 1663, 1662, 5961, 5969, 1713, 1712
4761, 5719, 5752, 1670, 1669, 5972, 6005, 1720, 1719
4762, 5745, 5783, 5719, 5709, 5998, 6036, 5972, 5962
4763, 5731, 5759, 1702, 1701, 5984, 6012, 1752, 1751
4764, 5759, 5732, 1703, 1702, 6012, 5985, 1753, 1752
4765, 5712, 5734, 1707, 1706, 5965, 5987, 1757, 1756
4766, 5925, 5830, 5712, 5733, 6178, 6083, 5965, 5986
4767, 5713, 5735, 1709, 1708, 5966, 5988, 1759, 1758
4768, 5747, 5831, 5713, 5734, 6000, 6084, 5966, 5987
4769, 5735, 5714, 1660, 1709, 5988, 5967, 1710, 1759
4770, 5831, 5748, 5735, 5713, 6084, 6001, 5988, 5966
4771, 5715, 5736, 5917, 5708, 5968, 5989, 6170, 5961
4772, 5784, 5805, 5717, 5749, 6037, 6058, 5970, 6002
4773, 5750, 5718, 1667, 1666, 6003, 5971, 1717, 1716
4774, 5737, 5745, 5709, 5718, 5990, 5998, 5962, 5971
4775, 5794, 5811, 5720, 5752, 6047, 6064, 5973, 6005
4776, 5791, 5767, 5737, 5774, 6044, 6020, 5990, 6027
4777, 5739, 5798, 5705, 5721, 5992, 6051, 5958, 5974
4778, 5816, 5806, 5841, 5855, 6069, 6059, 6094, 6108
4779, 5769, 5777, 5765, 5754, 6022, 6030, 6018, 6007
4780, 5723, 5757, 1681, 1680, 5976, 6010, 1731, 1730
4781, 5757, 5724, 1682, 1681, 6010, 5977, 1732, 1731
4782, 5755, 5706, 5799, 5768, 6008, 5959, 6052, 6021
4783, 5768, 5799, 5870, 5787, 6021, 6052, 6123, 6040
4784, 5768, 5782, 5764, 5755, 6021, 6035, 6017, 6008
4785, 5726, 5753, 1689, 1688, 5979, 6006, 1739, 1738
4786, 5753, 5727, 1690, 1689, 6006, 5980, 1740, 1739
4787, 5892, 5738, 5727, 5753, 6145, 5991, 5980, 6006
4788, 5767, 5800, 5745, 5737, 6020, 6053, 5998, 5990
4789, 5770, 5780, 5762, 5751, 6023, 6033, 6015, 6004
4790, 5729, 5763, 1697, 1696, 5982, 6016, 1747, 1746
4791, 5926, 5937, 5809, 5766, 6179, 6190, 6062, 6019
4792, 5921, 5801, 5793, 5744, 6174, 6054, 6046, 5997
4793, 5711, 5743, 5925, 5733, 5964, 5996, 6178, 5986
4794, 5708, 5917, 5746, 5716, 5961, 6170, 5999, 5969
4795, 5780, 5770, 5788, 5790, 6033, 6023, 6041, 6043
4796, 5783, 5794, 5752, 5719, 6036, 6047, 6005, 5972
4797, 5738, 5797, 5707, 5727, 5991, 6050, 5960, 5980
4798, 5751, 5707, 5797, 5770, 6004, 5960, 6050, 6023
4799, 5754, 5705, 5798, 5769, 6007, 5958, 6051, 6022
4800, 5825, 5919, 5723, 5756, 6078, 6172, 5976, 6009
4801, 5740, 5799, 5706, 5724, 5993, 6052, 5959, 5977
4802, 5782, 5768, 5787, 5931, 6035, 6021, 6040, 6184
4803, 5741, 5776, 5731, 5710, 5994, 6029, 5984, 5963
4804, 5776, 5766, 5801, 5921, 6029, 6019, 6054, 6174
4805, 5802, 5815, 5729, 5760, 6055, 6068, 5982, 6013
4806, 5801, 5936, 5810, 5793, 6054, 6189, 6063, 6046
4807, 5836, 5928, 5794, 5783, 6089, 6181, 6047, 6036
4808, 5774, 5805, 5821, 5791, 6027, 6058, 6074, 6044
4809, 5784, 5746, 5911, 5842, 6037, 5999, 6164, 6095
4810, 5748, 5832, 5714, 5735, 6001, 6085, 5967, 5988
4811, 5940, 5939, 5873, 5849, 6193, 6192, 6126, 6102
4812, 5762, 5728, 1694, 1693, 6015, 5981, 1744, 1743
4813, 5765, 5722, 1678, 1677, 6018, 5975, 1728, 1727
4814, 5764, 5725, 1686, 1685, 6017, 5978, 1736, 1735
4815, 5915, 5721, 1674, 1673, 6168, 5974, 1724, 1723
4816, 5780, 5778, 5728, 5762, 6033, 6031, 5981, 6015
4817, 5916, 5730, 1699, 1698, 6169, 5983, 1749, 1748
4818, 5782, 5781, 5725, 5764, 6035, 6034, 5978, 6017
4819, 5777, 5772, 5722, 5765, 6030, 6025, 5975, 6018
4820, 5800, 5836, 5783, 5745, 6053, 6089, 6036, 5998
4821, 5930, 5786, 5769, 5798, 6183, 6039, 6022, 6051
4822, 5798, 5739, 5814, 5930, 6051, 5992, 6067, 6183
4823, 5772, 5825, 5756, 5722, 6025, 6078, 6009, 5975
4824, 5797, 5738, 5833, 5933, 6050, 5991, 6086, 6186
4825, 5778, 5802, 5760, 5728, 6031, 6055, 6013, 5981
4826, 5933, 5833, 5846, 5817, 6186, 6086, 6099, 6070
4827, 5812, 5839, 5825, 5772, 6065, 6092, 6078, 6025
4828, 5799, 5740, 5792, 5870, 6052, 5993, 6045, 6123
4829, 5773, 5781, 5785, 5932, 6026, 6034, 6038, 6185
4830, 5758, 5725, 5781, 5773, 6011, 5978, 6034, 6026
4831, 5717, 5805, 5774, 5750, 5970, 6058, 6027, 6003
4832, 5934, 5796, 5927, 5815, 6187, 6049, 6180, 6068
4833, 5788, 5933, 5817, 5803, 6041, 6186, 6070, 6056
4834, 5761, 5720, 5811, 5779, 6014, 5973, 6064, 6032
4835, 5926, 5741, 5742, 5796, 6179, 5994, 5995, 6049
4836, 5781, 5782, 5931, 5785, 6034, 6035, 6184, 6038
4837, 5767, 5791, 5806, 5808, 6020, 6044, 6059, 6061
4838, 5816, 5843, 5808, 5806, 6069, 6096, 6061, 6059
4839, 5789, 5812, 5772, 5777, 6042, 6065, 6025, 6030
4840, 5881, 5877, 5875, 5857, 6134, 6130, 6128, 6110
4841, 5790, 5874, 5778, 5780, 6043, 6127, 6031, 6033
4842, 5788, 5803, 5818, 5790, 6041, 6056, 6071, 6043
4843, 5821, 5841, 5806, 5791, 6074, 6094, 6059, 6044
4844, 5946, 5817, 5846, 5844, 6199, 6070, 6099, 6097
4845, 5830, 5925, 5924, 5923, 6083, 6178, 6177, 6176
4846, 5826, 5928, 5836, 5835, 6079, 6181, 6089, 6088
4847, 5858, 5941, 5835, 5823, 6111, 6194, 6088, 6076
4848, 5795, 5929, 5918, 5779, 6048, 6182, 6171, 6032
4849, 5927, 5796, 5742, 5920, 6180, 6049, 5995, 6173
4850, 5823, 5835, 5836, 5800, 6076, 6088, 6089, 6053
4851, 5741, 5926, 5766, 5776, 5994, 6179, 6019, 6029
4852, 5807, 5934, 5815, 5802, 6060, 6187, 6068, 6055
4853, 5874, 5852, 5822, 5807, 6127, 6105, 6075, 6060
4854, 5883, 5881, 5903, 5896, 6136, 6134, 6156, 6149
4855, 5943, 5827, 5930, 5814, 6196, 6080, 6183, 6067
4856, 5804, 5944, 5789, 5786, 6057, 6197, 6042, 6039
4857, 5805, 5784, 5842, 5821, 6058, 6037, 6095, 6074
4858, 5808, 5823, 5800, 5767, 6061, 6076, 6053, 6020
4859, 5937, 5926, 5796, 5822, 6190, 6179, 6049, 6075
4860, 5843, 5858, 5823, 5808, 6096, 6111, 6076, 6061
4861, 5936, 5854, 5861, 5810, 6189, 6107, 6114, 6063
4862, 5936, 5801, 5766, 5809, 6189, 6054, 6019, 6062
4863, 5793, 5810, 5829, 5813, 6046, 6063, 6082, 6066
4864, 5845, 5922, 5824, 5935, 6098, 6175, 6077, 6188
4865, 5779, 5811, 5826, 5795, 6032, 6064, 6079, 6048
4866, 5813, 5924, 5744, 5793, 6066, 6177, 5997, 6046
4867, 5940, 5849, 5834, 5872, 6193, 6102, 6087, 6125
4868, 5786, 5930, 5827, 5804, 6039, 6183, 6080, 6057
4869, 5929, 5820, 5943, 5814, 6182, 6073, 6196, 6067
4870, 5815, 5927, 5763, 5729, 6068, 6180, 6016, 5982
4871, 5861, 5867, 5938, 5851, 6114, 6120, 6191, 6104
4872, 5840, 5937, 5822, 5852, 6093, 6190, 6075, 6105
4873, 5792, 5839, 5853, 5847, 6045, 6092, 6106, 6100
4874, 5929, 5795, 5941, 5820, 6182, 6048, 6194, 6073
4875, 5943, 5820, 5848, 5838, 6196, 6073, 6101, 6091
4876, 5828, 5871, 5869, 5911, 6081, 6124, 6122, 6164
4877, 5822, 5796, 5934, 5807, 6075, 6049, 6187, 6060
4878, 5835, 5941, 5795, 5826, 6088, 6194, 6048, 6079
4879, 5834, 5832, 5748, 5872, 6087, 6085, 6001, 6125
4880, 5919, 5775, 5757, 5723, 6172, 6028, 6010, 5976
4881, 5775, 5919, 5825, 5839, 6028, 6172, 6078, 6092
4882, 5950, 5944, 5804, 5827, 6203, 6197, 6057, 6080
4883, 5832, 5834, 5860, 5736, 6085, 6087, 6113, 5989
4884, 5736, 5860, 5828, 5917, 5989, 6113, 6081, 6170
4885, 5863, 5837, 5952, 5953, 6116, 6090, 6205, 6206
4886, 5922, 5831, 5747, 5824, 6175, 6084, 6000, 6077
4887, 5933, 5788, 5770, 5797, 6186, 6041, 6023, 6050
4888, 5873, 5938, 5887, 5882, 6126, 6191, 6140, 6135
4889, 5837, 5852, 5818, 5803, 6090, 6105, 6071, 6056
4890, 5852, 5837, 5863, 5840, 6105, 6090, 6116, 6093
4891, 5855, 5876, 5857, 5816, 6108, 6129, 6110, 6069
4892, 5839, 5812, 5819, 5853, 6092, 6065, 6072, 6106
4893, 5949, 5898, 5945, 5886, 6202, 6151, 6198, 6139
4894, 5847, 5886, 5870, 5792, 6100, 6139, 6123, 6045
4895, 5809, 5942, 5854, 5936, 6062, 6195, 6107, 6189
4896, 5851, 5829, 5810, 5861, 6104, 6082, 6063, 6114
4897, 5856, 5841, 5821, 5842, 6109, 6094, 6074, 6095
4898, 5865, 5860, 5834, 5849, 6118, 6113, 6087, 6102
4899, 5858, 5843, 5875, 5848, 6111, 6096, 6128, 6101
4900, 5859, 5952, 5844, 5889, 6112, 6205, 6097, 6142
4901, 5946, 5837, 5803, 5817, 6199, 6090, 6056, 6070
4902, 5747, 5830, 5923, 5824, 6000, 6083, 6176, 6077
4903, 5864, 5850, 5892, 5771, 6117, 6103, 6145, 6024
4904, 5864, 5932, 5785, 5891, 6117, 6185, 6038, 6144
4905, 5848, 5820, 5941, 5858, 6101, 6073, 6194, 6111
4906, 5944, 5950, 5879, 5819, 6197, 6203, 6132, 6072
4907, 5860, 5865, 5871, 5828, 6113, 6118, 6124, 6081
4908, 5738, 5892, 5850, 5833, 5991, 6145, 6103, 6086
4909, 5878, 5893, 5906, 5880, 6131, 6146, 6159, 6133
4910, 5829, 5851, 5939, 5935, 6082, 6104, 6192, 6188
4911, 5874, 5790, 5818, 5852, 6127, 6043, 6071, 6105
4912, 5942, 5878, 5866, 5854, 6195, 6131, 6119, 6107
4913, 5857, 5875, 5843, 5816, 6110, 6128, 6096, 6069
4914, 5862, 5951, 5879, 5956, 6115, 6204, 6132, 6209
4915, 5841, 5856, 5868, 5855, 6094, 6109, 6121, 6108
4916, 5842, 5911, 5869, 5856, 6095, 6164, 6122, 6109
4917, 5862, 5956, 5838, 5877, 6115, 6209, 6091, 6130
4918, 5952, 5837, 5946, 5844, 6205, 6090, 6199, 6097
4919, 5880, 5948, 5866, 5878, 6133, 6201, 6119, 6131
4920, 5853, 5819, 5879, 5951, 6106, 6072, 6132, 6204
4921, 5840, 5863, 5878, 5942, 6093, 6116, 6131, 6195
4922, 5854, 5866, 5867, 5861, 6107, 6119, 6120, 6114
4923, 5885, 5889, 5844, 5846, 6138, 6142, 6097, 6099
4924, 5910, 5868, 5856, 5869, 6163, 6121, 6109, 6122
4925, 5873, 5882, 5865, 5849, 6126, 6135, 6118, 6102
4926, 5901, 5876, 5888, 5900, 6154, 6129, 6141, 6153
4927, 5855, 5868, 5888, 5876, 6108, 6121, 6141, 6129
4928, 5746, 5917, 5828, 5911, 5999, 6170, 6081, 6164
4929, 5886, 5945, 5787, 5870, 6139, 6198, 6040, 6123
4930, 5895, 5871, 5865, 5882, 6148, 6124, 6118, 6135
4931, 5922, 5845, 5940, 5872, 6175, 6098, 6193, 6125
4932, 5831, 5922, 5872, 5748, 6084, 6175, 6125, 6001
4933, 5939, 5851, 5938, 5873, 6192, 6104, 6191, 6126
4934, 5877, 5838, 5848, 5875, 6130, 6091, 6101, 6128
4935, 5883, 5862, 5877, 5881, 6136, 6115, 6130, 6134
4936, 5901, 5904, 5903, 5876, 6154, 6157, 6156, 6129
4937, 5956, 5879, 5950, 5838, 6209, 6132, 6203, 6091
4938, 5863, 5953, 5893, 5878, 6116, 6206, 6146, 6131
4939, 5857, 5876, 5903, 5881, 6110, 6129, 6156, 6134
4940, 5882, 5887, 5905, 5895, 6135, 6140, 6158, 6148
4941, 5896, 5903, 5904, 5907, 6149, 6156, 6157, 6160
4942, 5896, 5907, 5902, 5954, 6149, 6160, 6155, 6207
4943, 5912, 5859, 5889, 5908, 6165, 6112, 6142, 6161
4944, 5864, 5891, 5885, 5850, 6117, 6144, 6138, 6103
4945, 5847, 5853, 5949, 5886, 6100, 6106, 6202, 6139
4946, 5785, 5931, 5913, 5891, 6038, 6184, 6166, 6144
4947, 5897, 5887, 5938, 5867, 6150, 6140, 6191, 6120
4948, 5955, 5953, 5952, 5859, 6208, 6206, 6205, 6112
4949, 5899, 5955, 5859, 5912, 6152, 6208, 6112, 6165
4950, 5890, 5951, 5862, 5883, 6143, 6204, 6115, 6136
4951, 5891, 5913, 5894, 5885, 6144, 6166, 6147, 6138
4952, 5898, 5884, 5908, 5894, 6151, 6137, 6161, 6147
4953, 5894, 5908, 5889, 5885, 6147, 6161, 6142, 6138
4954, 5895, 5905, 5900, 5910, 6148, 6158, 6153, 6163
4955, 5910, 5869, 5871, 5895, 6163, 6122, 6124, 6148
4956, 5901, 5906, 5947, 5904, 6154, 6159, 6200, 6157
4957, 5883, 5896, 5954, 5890, 6136, 6149, 6207, 6143
4958, 5948, 5880, 5909, 5897, 6201, 6133, 6162, 6150
4959, 5884, 5898, 5949, 5957, 6137, 6151, 6202, 6210
4960, 5914, 5955, 5899, 5907, 6167, 6208, 6152, 6160
4961, 5868, 5910, 5900, 5888, 6121, 6163, 6153, 6141
4962, 5909, 5901, 5900, 5905, 6162, 6154, 6153, 6158
4963, 5902, 5912, 5908, 5884, 6155, 6165, 6161, 6137
4964, 5904, 5947, 5914, 5907, 6157, 6200, 6167, 6160
4965, 5897, 5909, 5905, 5887, 6150, 6162, 6158, 6140
4966, 5907, 5899, 5912, 5902, 6160, 6152, 6165, 6155
4967, 5955, 5914, 5893, 5953, 6208, 6167, 6146, 6206
4968, 5909, 5880, 5906, 5901, 6162, 6133, 6159, 6154
4969, 5945, 5898, 5894, 5913, 6198, 6151, 6147, 6166
4970, 5931, 5787, 5945, 5913, 6184, 6040, 6198, 6166
4971, 5906, 5893, 5914, 5947, 6159, 6146, 6167, 6200
4972, 5918, 5739, 5721, 5915, 6171, 5992, 5974, 6168
4973, 5920, 5742, 5730, 5916, 6173, 5995, 5983, 6169
4974, 5929, 5814, 5739, 5918, 6182, 6067, 5992, 6171
4975, 5921, 5744, 5732, 5759, 6174, 5997, 5985, 6012
4976, 5923, 5924, 5813, 5824, 6176, 6177, 6066, 6077
4977, 5928, 5826, 5811, 5794, 6181, 6079, 6064, 6047
4978, 5932, 5864, 5771, 5773, 6185, 6117, 6024, 6026
4979, 5935, 5824, 5813, 5829, 6188, 6077, 6066, 6082
4980, 5937, 5840, 5942, 5809, 6190, 6093, 6195, 6062
4981, 5940, 5845, 5935, 5939, 6193, 6098, 6188, 6192
4982, 5943, 5838, 5950, 5827, 6196, 6091, 6203, 6080
4983, 5948, 5897, 5867, 5866, 6201, 6150, 6120, 6119
4984, 5957, 5949, 5853, 5951, 6210, 6202, 6106, 6204
4985, 5884, 5957, 5954, 5902, 6137, 6210, 6207, 6155
4986, 5957, 5951, 5890, 5954, 6210, 6204, 6143, 6207
4987, 1719, 1718, 5962, 5972, 1769, 1768, 6215, 6225
4988, 6168, 6014, 6032, 6171, 6421, 6267, 6285, 6424
4989, 5958, 6007, 1726, 1725, 6211, 6260, 1776, 1775
4990, 5975, 6009, 1729, 1728, 6228, 6262, 1779, 1778
4991, 6045, 5993, 6028, 6092, 6298, 6246, 6281, 6345
4992, 1733, 1732, 5977, 5959, 1783, 1782, 6230, 6212
4993, 6039, 6042, 6030, 6022, 6292, 6295, 6283, 6275
4994, 6011, 5979, 1738, 1737, 6264, 6232, 1788, 1787
4995, 6006, 5979, 6024, 6145, 6259, 6232, 6277, 6398
4996, 5960, 6004, 1742, 1741, 6213, 6257, 1792, 1791
4997, 5981, 6013, 1745, 1744, 6234, 6266, 1795, 1794
4998, 6127, 6060, 6055, 6031, 6380, 6313, 6308, 6284
4999, 1750, 1749, 5983, 5963, 1800, 1799, 6236, 6216
5000, 5963, 5984, 1751, 1750, 6216, 6237, 1801, 1800
5001, 5969, 6002, 1714, 1713, 6222, 6255, 1764, 1763
5002, 5970, 6003, 1716, 1715, 6223, 6256, 1766, 1765
5003, 1718, 1717, 5971, 5962, 1768, 1767, 6224, 6215
5004, 6005, 5973, 1721, 1720, 6258, 6226, 1771, 1770
5005, 1754, 1753, 5985, 5964, 1804, 1803, 6238, 6217
5006, 5979, 6011, 6026, 6024, 6232, 6264, 6279, 6277
5007, 5964, 5985, 5997, 5996, 6217, 6238, 6250, 6249
5008, 6029, 6174, 6012, 5984, 6282, 6427, 6265, 6237
5009, 6083, 6000, 5987, 5965, 6336, 6253, 6240, 6218
5010, 1711, 1710, 5967, 5968, 1761, 1760, 6220, 6221
5011, 6028, 5993, 5977, 6010, 6281, 6246, 6230, 6263
5012, 6002, 5970, 1715, 1714, 6255, 6223, 1765, 1764
5013, 5971, 6003, 6027, 5990, 6224, 6256, 6280, 6243
5014, 6002, 5969, 5999, 6037, 6255, 6222, 6252, 6290
5015, 5973, 6014, 1722, 1721, 6226, 6267, 1772, 1771
5016, 1723, 1722, 6014, 6168, 1773, 1772, 6267, 6421
5017, 1725, 1724, 5974, 5958, 1775, 1774, 6227, 6211
5018, 6007, 6018, 1727, 1726, 6260, 6271, 1777, 1776
5019, 6009, 5976, 1730, 1729, 6262, 6229, 1780, 1779
5020, 5959, 6008, 1734, 1733, 6212, 6261, 1784, 1783
5021, 5978, 6011, 1737, 1736, 6231, 6264, 1787, 1786
5022, 6103, 6138, 6099, 6086, 6356, 6391, 6352, 6339
5023, 1741, 1740, 5980, 5960, 1791, 1790, 6233, 6213
5024, 6065, 6042, 6197, 6072, 6318, 6295, 6450, 6325
5025, 6013, 5982, 1746, 1745, 6266, 6235, 1796, 1795
5026, 1748, 1747, 6016, 6169, 1798, 1797, 6269, 6422
5027, 6169, 6016, 6180, 6173, 6422, 6269, 6433, 6426
5028, 5995, 5994, 5963, 5983, 6248, 6247, 6216, 6236
5029, 5964, 5986, 1755, 1754, 6217, 6239, 1805, 1804
5030, 5986, 5965, 1756, 1755, 6239, 6218, 1806, 1805
5031, 5987, 5966, 1758, 1757, 6240, 6219, 1808, 1807
5032, 6177, 6178, 5996, 5997, 6430, 6431, 6249, 6250
5033, 5989, 5968, 5967, 6085, 6242, 6221, 6220, 6338
5034, 6008, 6017, 1735, 1734, 6261, 6270, 1785, 1784
5035, 6004, 6015, 1743, 1742, 6257, 6268, 1793, 1792
5036, 1712, 1711, 5968, 5961, 1762, 1761, 6221, 6214
5037, 5961, 5969, 1713, 1712, 6214, 6222, 1763, 1762
5038, 5972, 6005, 1720, 1719, 6225, 6258, 1770, 1769
5039, 5998, 6036, 5972, 5962, 6251, 6289, 6225, 6215
5040, 5984, 6012, 1752, 1751, 6237, 6265, 1802, 1801
5041, 6012, 5985, 1753, 1752, 6265, 6238, 1803, 1802
5042, 5965, 5987, 1757, 1756, 6218, 6240, 1807, 1806
5043, 6178, 6083, 5965, 5986, 6431, 6336, 6218, 6239
5044, 5966, 5988, 1759, 1758, 6219, 6241, 1809, 1808
5045, 6000, 6084, 5966, 5987, 6253, 6337, 6219, 6240
5046, 5988, 5967, 1710, 1759, 6241, 6220, 1760, 1809
5047, 6084, 6001, 5988, 5966, 6337, 6254, 6241, 6219
5048, 5968, 5989, 6170, 5961, 6221, 6242, 6423, 6214
5049, 6037, 6058, 5970, 6002, 6290, 6311, 6223, 6255
5050, 6003, 5971, 1717, 1716, 6256, 6224, 1767, 1766
5051, 5990, 5998, 5962, 5971, 6243, 6251, 6215, 6224
5052, 6047, 6064, 5973, 6005, 6300, 6317, 6226, 6258
5053, 6044, 6020, 5990, 6027, 6297, 6273, 6243, 6280
5054, 5992, 6051, 5958, 5974, 6245, 6304, 6211, 6227
5055, 6069, 6059, 6094, 6108, 6322, 6312, 6347, 6361
5056, 6022, 6030, 6018, 6007, 6275, 6283, 6271, 6260
5057, 5976, 6010, 1731, 1730, 6229, 6263, 1781, 1780
5058, 6010, 5977, 1732, 1731, 6263, 6230, 1782, 1781
5059, 6008, 5959, 6052, 6021, 6261, 6212, 6305, 6274
5060, 6021, 6052, 6123, 6040, 6274, 6305, 6376, 6293
5061, 6021, 6035, 6017, 6008, 6274, 6288, 6270, 6261
5062, 5979, 6006, 1739, 1738, 6232, 6259, 1789, 1788
5063, 6006, 5980, 1740, 1739, 6259, 6233, 1790, 1789
5064, 6145, 5991, 5980, 6006, 6398, 6244, 6233, 6259
5065, 6020, 6053, 5998, 5990, 6273, 6306, 6251, 6243
5066, 6023, 6033, 6015, 6004, 6276, 6286, 6268, 6257
5067, 5982, 6016, 1747, 1746, 6235, 6269, 1797, 1796
5068, 6179, 6190, 6062, 6019, 6432, 6443, 6315, 6272
5069, 6174, 6054, 6046, 5997, 6427, 6307, 6299, 6250
5070, 5964, 5996, 6178, 5986, 6217, 6249, 6431, 6239
5071, 5961, 6170, 5999, 5969, 6214, 6423, 6252, 6222
5072, 6033, 6023, 6041, 6043, 6286, 6276, 6294, 6296
5073, 6036, 6047, 6005, 5972, 6289, 6300, 6258, 6225
5074, 5991, 6050, 5960, 5980, 6244, 6303, 6213, 6233
5075, 6004, 5960, 6050, 6023, 6257, 6213, 6303, 6276
5076, 6007, 5958, 6051, 6022, 6260, 6211, 6304, 6275
5077, 6078, 6172, 5976, 6009, 6331, 6425, 6229, 6262
5078, 5993, 6052, 5959, 5977, 6246, 6305, 6212, 6230
5079, 6035, 6021, 6040, 6184, 6288, 6274, 6293, 6437
5080, 5994, 6029, 5984, 5963, 6247, 6282, 6237, 6216
5081, 6029, 6019, 6054, 6174, 6282, 6272, 6307, 6427
5082, 6055, 6068, 5982, 6013, 6308, 6321, 6235, 6266
5083, 6054, 6189, 6063, 6046, 6307, 6442, 6316, 6299
5084, 6089, 6181, 6047, 6036, 6342, 6434, 6300, 6289
5085, 6027, 6058, 6074, 6044, 6280, 6311, 6327, 6297
5086, 6037, 5999, 6164, 6095, 6290, 6252, 6417, 6348
5087, 6001, 6085, 5967, 5988, 6254, 6338, 6220, 6241
5088, 6193, 6192, 6126, 6102, 6446, 6445, 6379, 6355
5089, 6015, 5981, 1744, 1743, 6268, 6234, 1794, 1793
5090, 6018, 5975, 1728, 1727, 6271, 6228, 1778, 1777
5091, 6017, 5978, 1736, 1735, 6270, 6231, 1786, 1785
5092, 6168, 5974, 1724, 1723, 6421, 6227, 1774, 1773
5093, 6033, 6031, 5981, 6015, 6286, 6284, 6234, 6268
5094, 6169, 5983, 1749, 1748, 6422, 6236, 1799, 1798
5095, 6035, 6034, 5978, 6017, 6288, 6287, 6231, 6270
5096, 6030, 6025, 5975, 6018, 6283, 6278, 6228, 6271
5097, 6053, 6089, 6036, 5998, 6306, 6342, 6289, 6251
5098, 6183, 6039, 6022, 6051, 6436, 6292, 6275, 6304
5099, 6051, 5992, 6067, 6183, 6304, 6245, 6320, 6436
5100, 6025, 6078, 6009, 5975, 6278, 6331, 6262, 6228
5101, 6050, 5991, 6086, 6186, 6303, 6244, 6339, 6439
5102, 6031, 6055, 6013, 5981, 6284, 6308, 6266, 6234
5103, 6186, 6086, 6099, 6070, 6439, 6339, 6352, 6323
5104, 6065, 6092, 6078, 6025, 6318, 6345, 6331, 6278
5105, 6052, 5993, 6045, 6123, 6305, 6246, 6298, 6376
5106, 6026, 6034, 6038, 6185, 6279, 6287, 6291, 6438
5107, 6011, 5978, 6034, 6026, 6264, 6231, 6287, 6279
5108, 5970, 6058, 6027, 6003, 6223, 6311, 6280, 6256
5109, 6187, 6049, 6180, 6068, 6440, 6302, 6433, 6321
5110, 6041, 6186, 6070, 6056, 6294, 6439, 6323, 6309
5111, 6014, 5973, 6064, 6032, 6267, 6226, 6317, 6285
5112, 6179, 5994, 5995, 6049, 6432, 6247, 6248, 6302
5113, 6034, 6035, 6184, 6038, 6287, 6288, 6437, 6291
5114, 6020, 6044, 6059, 6061, 6273, 6297, 6312, 6314
5115, 6069, 6096, 6061, 6059, 6322, 6349, 6314, 6312
5116, 6042, 6065, 6025, 6030, 6295, 6318, 6278, 6283
5117, 6134, 6130, 6128, 6110, 6387, 6383, 6381, 6363
5118, 6043, 6127, 6031, 6033, 6296, 6380, 6284, 6286
5119, 6041, 6056, 6071, 6043, 6294, 6309, 6324, 6296
5120, 6074, 6094, 6059, 6044, 6327, 6347, 6312, 6297
5121, 6199, 6070, 6099, 6097, 6452, 6323, 6352, 6350
5122, 6083, 6178, 6177, 6176, 6336, 6431, 6430, 6429
5123, 6079, 6181, 6089, 6088, 6332, 6434, 6342, 6341
5124, 6111, 6194, 6088, 6076, 6364, 6447, 6341, 6329
5125, 6048, 6182, 6171, 6032, 6301, 6435, 6424, 6285
5126, 6180, 6049, 5995, 6173, 6433, 6302, 6248, 6426
5127, 6076, 6088, 6089, 6053, 6329, 6341, 6342, 6306
5128, 5994, 6179, 6019, 6029, 6247, 6432, 6272, 6282
5129, 6060, 6187, 6068, 6055, 6313, 6440, 6321, 6308
5130, 6127, 6105, 6075, 6060, 6380, 6358, 6328, 6313
5131, 6136, 6134, 6156, 6149, 6389, 6387, 6409, 6402
5132, 6196, 6080, 6183, 6067, 6449, 6333, 6436, 6320
5133, 6057, 6197, 6042, 6039, 6310, 6450, 6295, 6292
5134, 6058, 6037, 6095, 6074, 6311, 6290, 6348, 6327
5135, 6061, 6076, 6053, 6020, 6314, 6329, 6306, 6273
5136, 6190, 6179, 6049, 6075, 6443, 6432, 6302, 6328
5137, 6096, 6111, 6076, 6061, 6349, 6364, 6329, 6314
5138, 6189, 6107, 6114, 6063, 6442, 6360, 6367, 6316
5139, 6189, 6054, 6019, 6062, 6442, 6307, 6272, 6315
5140, 6046, 6063, 6082, 6066, 6299, 6316, 6335, 6319
5141, 6098, 6175, 6077, 6188, 6351, 6428, 6330, 6441
5142, 6032, 6064, 6079, 6048, 6285, 6317, 6332, 6301
5143, 6066, 6177, 5997, 6046, 6319, 6430, 6250, 6299
5144, 6193, 6102, 6087, 6125, 6446, 6355, 6340, 6378
5145, 6039, 6183, 6080, 6057, 6292, 6436, 6333, 6310
5146, 6182, 6073, 6196, 6067, 6435, 6326, 6449, 6320
5147, 6068, 6180, 6016, 5982, 6321, 6433, 6269, 6235
5148, 6114, 6120, 6191, 6104, 6367, 6373, 6444, 6357
5149, 6093, 6190, 6075, 6105, 6346, 6443, 6328, 6358
5150, 6045, 6092, 6106, 6100, 6298, 6345, 6359, 6353
5151, 6182, 6048, 6194, 6073, 6435, 6301, 6447, 6326
5152, 6196, 6073, 6101, 6091, 6449, 6326, 6354, 6344
5153, 6081, 6124, 6122, 6164, 6334, 6377, 6375, 6417
5154, 6075, 6049, 6187, 6060, 6328, 6302, 6440, 6313
5155, 6088, 6194, 6048, 6079, 6341, 6447, 6301, 6332
5156, 6087, 6085, 6001, 6125, 6340, 6338, 6254, 6378
5157, 6172, 6028, 6010, 5976, 6425, 6281, 6263, 6229
5158, 6028, 6172, 6078, 6092, 6281, 6425, 6331, 6345
5159, 6203, 6197, 6057, 6080, 6456, 6450, 6310, 6333
5160, 6085, 6087, 6113, 5989, 6338, 6340, 6366, 6242
5161, 5989, 6113, 6081, 6170, 6242, 6366, 6334, 6423
5162, 6116, 6090, 6205, 6206, 6369, 6343, 6458, 6459
5163, 6175, 6084, 6000, 6077, 6428, 6337, 6253, 6330
5164, 6186, 6041, 6023, 6050, 6439, 6294, 6276, 6303
5165, 6126, 6191, 6140, 6135, 6379, 6444, 6393, 6388
5166, 6090, 6105, 6071, 6056, 6343, 6358, 6324, 6309
5167, 6105, 6090, 6116, 6093, 6358, 6343, 6369, 6346
5168, 6108, 6129, 6110, 6069, 6361, 6382, 6363, 6322
5169, 6092, 6065, 6072, 6106, 6345, 6318, 6325, 6359
5170, 6202, 6151, 6198, 6139, 6455, 6404, 6451, 6392
5171, 6100, 6139, 6123, 6045, 6353, 6392, 6376, 6298
5172, 6062, 6195, 6107, 6189, 6315, 6448, 6360, 6442
5173, 6104, 6082, 6063, 6114, 6357, 6335, 6316, 6367
5174, 6109, 6094, 6074, 6095, 6362, 6347, 6327, 6348
5175, 6118, 6113, 6087, 6102, 6371, 6366, 6340, 6355
5176, 6111, 6096, 6128, 6101, 6364, 6349, 6381, 6354
5177, 6112, 6205, 6097, 6142, 6365, 6458, 6350, 6395
5178, 6199, 6090, 6056, 6070, 6452, 6343, 6309, 6323
5179, 6000, 6083, 6176, 6077, 6253, 6336, 6429, 6330
5180, 6117, 6103, 6145, 6024, 6370, 6356, 6398, 6277
5181, 6117, 6185, 6038, 6144, 6370, 6438, 6291, 6397
5182, 6101, 6073, 6194, 6111, 6354, 6326, 6447, 6364
5183, 6197, 6203, 6132, 6072, 6450, 6456, 6385, 6325
5184, 6113, 6118, 6124, 6081, 6366, 6371, 6377, 6334
5185, 5991, 6145, 6103, 6086, 6244, 6398, 6356, 6339
5186, 6131, 6146, 6159, 6133, 6384, 6399, 6412, 6386
5187, 6082, 6104, 6192, 6188, 6335, 6357, 6445, 6441
5188, 6127, 6043, 6071, 6105, 6380, 6296, 6324, 6358
5189, 6195, 6131, 6119, 6107, 6448, 6384, 6372, 6360
5190, 6110, 6128, 6096, 6069, 6363, 6381, 6349, 6322
5191, 6115, 6204, 6132, 6209, 6368, 6457, 6385, 6462
5192, 6094, 6109, 6121, 6108, 6347, 6362, 6374, 6361
5193, 6095, 6164, 6122, 6109, 6348, 6417, 6375, 6362
5194, 6115, 6209, 6091, 6130, 6368, 6462, 6344, 6383
5195, 6205, 6090, 6199, 6097, 6458, 6343, 6452, 6350
5196, 6133, 6201, 6119, 6131, 6386, 6454, 6372, 6384
5197, 6106, 6072, 6132, 6204, 6359, 6325, 6385, 6457
5198, 6093, 6116, 6131, 6195, 6346, 6369, 6384, 6448
5199, 6107, 6119, 6120, 6114, 6360, 6372, 6373, 6367
5200, 6138, 6142, 6097, 6099, 6391, 6395, 6350, 6352
5201, 6163, 6121, 6109, 6122, 6416, 6374, 6362, 6375
5202, 6126, 6135, 6118, 6102, 6379, 6388, 6371, 6355
5203, 6154, 6129, 6141, 6153, 6407, 6382, 6394, 6406
5204, 6108, 6121, 6141, 6129, 6361, 6374, 6394, 6382
5205, 5999, 6170, 6081, 6164, 6252, 6423, 6334, 6417
5206, 6139, 6198, 6040, 6123, 6392, 6451, 6293, 6376
5207, 6148, 6124, 6118, 6135, 6401, 6377, 6371, 6388
5208, 6175, 6098, 6193, 6125, 6428, 6351, 6446, 6378
5209, 6084, 6175, 6125, 6001, 6337, 6428, 6378, 6254
5210, 6192, 6104, 6191, 6126, 6445, 6357, 6444, 6379
5211, 6130, 6091, 6101, 6128, 6383, 6344, 6354, 6381
5212, 6136, 6115, 6130, 6134, 6389, 6368, 6383, 6387
5213, 6154, 6157, 6156, 6129, 6407, 6410, 6409, 6382
5214, 6209, 6132, 6203, 6091, 6462, 6385, 6456, 6344
5215, 6116, 6206, 6146, 6131, 6369, 6459, 6399, 6384
5216, 6110, 6129, 6156, 6134, 6363, 6382, 6409, 6387
5217, 6135, 6140, 6158, 6148, 6388, 6393, 6411, 6401
5218, 6149, 6156, 6157, 6160, 6402, 6409, 6410, 6413
5219, 6149, 6160, 6155, 6207, 6402, 6413, 6408, 6460
5220, 6165, 6112, 6142, 6161, 6418, 6365, 6395, 6414
5221, 6117, 6144, 6138, 6103, 6370, 6397, 6391, 6356
5222, 6100, 6106, 6202, 6139, 6353, 6359, 6455, 6392
5223, 6038, 6184, 6166, 6144, 6291, 6437, 6419, 6397
5224, 6150, 6140, 6191, 6120, 6403, 6393, 6444, 6373
5225, 6208, 6206, 6205, 6112, 6461, 6459, 6458, 6365
5226, 6152, 6208, 6112, 6165, 6405, 6461, 6365, 6418
5227, 6143, 6204, 6115, 6136, 6396, 6457, 6368, 6389
5228, 6144, 6166, 6147, 6138, 6397, 6419, 6400, 6391
5229, 6151, 6137, 6161, 6147, 6404, 6390, 6414, 6400
5230, 6147, 6161, 6142, 6138, 6400, 6414, 6395, 6391
5231, 6148, 6158, 6153, 6163, 6401, 6411, 6406, 6416
5232, 6163, 6122, 6124, 6148, 6416, 6375, 6377, 6401
5233, 6154, 6159, 6200, 6157, 6407, 6412, 6453, 6410
5234, 6136, 6149, 6207, 6143, 6389, 6402, 6460, 6396
5235, 6201, 6133, 6162, 6150, 6454, 6386, 6415, 6403
5236, 6137, 6151, 6202, 6210, 6390, 6404, 6455, 6463
5237, 6167, 6208, 6152, 6160, 6420, 6461, 6405, 6413
5238, 6121, 6163, 6153, 6141, 6374, 6416, 6406, 6394
5239, 6162, 6154, 6153, 6158, 6415, 6407, 6406, 6411
5240, 6155, 6165, 6161, 6137, 6408, 6418, 6414, 6390
5241, 6157, 6200, 6167, 6160, 6410, 6453, 6420, 6413
5242, 6150, 6162, 6158, 6140, 6403, 6415, 6411, 6393
5243, 6160, 6152, 6165, 6155, 6413, 6405, 6418, 6408
5244, 6208, 6167, 6146, 6206, 6461, 6420, 6399, 6459
5245, 6162, 6133, 6159, 6154, 6415, 6386, 6412, 6407
5246, 6198, 6151, 6147, 6166, 6451, 6404, 6400, 6419
5247, 6184, 6040, 6198, 6166, 6437, 6293, 6451, 6419
5248, 6159, 6146, 6167, 6200, 6412, 6399, 6420, 6453
5249, 6171, 5992, 5974, 6168, 6424, 6245, 6227, 6421
5250, 6173, 5995, 5983, 6169, 6426, 6248, 6236, 6422
5251, 6182, 6067, 5992, 6171, 6435, 6320, 6245, 6424
5252, 6174, 5997, 5985, 6012, 6427, 6250, 6238, 6265
5253, 6176, 6177, 6066, 6077, 6429, 6430, 6319, 6330
5254, 6181, 6079, 6064, 6047, 6434, 6332, 6317, 6300
5255, 6185, 6117, 6024, 6026, 6438, 6370, 6277, 6279
5256, 6188, 6077, 6066, 6082, 6441, 6330, 6319, 6335
5257, 6190, 6093, 6195, 6062, 6443, 6346, 6448, 6315
5258, 6193, 6098, 6188, 6192, 6446, 6351, 6441, 6445
5259, 6196, 6091, 6203, 6080, 6449, 6344, 6456, 6333
5260, 6201, 6150, 6120, 6119, 6454, 6403, 6373, 6372
5261, 6210, 6202, 6106, 6204, 6463, 6455, 6359, 6457
5262, 6137, 6210, 6207, 6155, 6390, 6463, 6460, 6408
5263, 6210, 6204, 6143, 6207, 6463, 6457, 6396, 6460
5264, 1769, 1768, 6215, 6225, 1819, 1818, 6468, 6478
5265, 6421, 6267, 6285, 6424, 6674, 6520, 6538, 6677
5266, 6211, 6260, 1776, 1775, 6464, 6513, 1826, 1825
5267, 6228, 6262, 1779, 1778, 6481, 6515, 1829, 1828
5268, 6298, 6246, 6281, 6345, 6551, 6499, 6534, 6598
5269, 1783, 1782, 6230, 6212, 1833, 1832, 6483, 6465
5270, 6292, 6295, 6283, 6275, 6545, 6548, 6536, 6528
5271, 6264, 6232, 1788, 1787, 6517, 6485, 1838, 1837
5272, 6259, 6232, 6277, 6398, 6512, 6485, 6530, 6651
5273, 6213, 6257, 1792, 1791, 6466, 6510, 1842, 1841
5274, 6234, 6266, 1795, 1794, 6487, 6519, 1845, 1844
5275, 6380, 6313, 6308, 6284, 6633, 6566, 6561, 6537
5276, 1800, 1799, 6236, 6216, 1850, 1849, 6489, 6469
5277, 6216, 6237, 1801, 1800, 6469, 6490, 1851, 1850
5278, 6222, 6255, 1764, 1763, 6475, 6508, 1814, 1813
5279, 6223, 6256, 1766, 1765, 6476, 6509, 1816, 1815
5280, 1768, 1767, 6224, 6215, 1818, 1817, 6477, 6468
5281, 6258, 6226, 1771, 1770, 6511, 6479, 1821, 1820
5282, 1804, 1803, 6238, 6217, 1854, 1853, 6491, 6470
5283, 6232, 6264, 6279, 6277, 6485, 6517, 6532, 6530
5284, 6217, 6238, 6250, 6249, 6470, 6491, 6503, 6502
5285, 6282, 6427, 6265, 6237, 6535, 6680, 6518, 6490
5286, 6336, 6253, 6240, 6218, 6589, 6506, 6493, 6471
5287, 1761, 1760, 6220, 6221, 1811, 1810, 6473, 6474
5288, 6281, 6246, 6230, 6263, 6534, 6499, 6483, 6516
5289, 6255, 6223, 1765, 1764, 6508, 6476, 1815, 1814
5290, 6224, 6256, 6280, 6243, 6477, 6509, 6533, 6496
5291, 6255, 6222, 6252, 6290, 6508, 6475, 6505, 6543
5292, 6226, 6267, 1772, 1771, 6479, 6520, 1822, 1821
5293, 1773, 1772, 6267, 6421, 1823, 1822, 6520, 6674
5294, 1775, 1774, 6227, 6211, 1825, 1824, 6480, 6464
5295, 6260, 6271, 1777, 1776, 6513, 6524, 1827, 1826
5296, 6262, 6229, 1780, 1779, 6515, 6482, 1830, 1829
5297, 6212, 6261, 1784, 1783, 6465, 6514, 1834, 1833
5298, 6231, 6264, 1787, 1786, 6484, 6517, 1837, 1836
5299, 6356, 6391, 6352, 6339, 6609, 6644, 6605, 6592
5300, 1791, 1790, 6233, 6213, 1841, 1840, 6486, 6466
5301, 6318, 6295, 6450, 6325, 6571, 6548, 6703, 6578
5302, 6266, 6235, 1796, 1795, 6519, 6488, 1846, 1845
5303, 1798, 1797, 6269, 6422, 1848, 1847, 6522, 6675
5304, 6422, 6269, 6433, 6426, 6675, 6522, 6686, 6679
5305, 6248, 6247, 6216, 6236, 6501, 6500, 6469, 6489
5306, 6217, 6239, 1805, 1804, 6470, 6492, 1855, 1854
5307, 6239, 6218, 1806, 1805, 6492, 6471, 1856, 1855
5308, 6240, 6219, 1808, 1807, 6493, 6472, 1858, 1857
5309, 6430, 6431, 6249, 6250, 6683, 6684, 6502, 6503
5310, 6242, 6221, 6220, 6338, 6495, 6474, 6473, 6591
5311, 6261, 6270, 1785, 1784, 6514, 6523, 1835, 1834
5312, 6257, 6268, 1793, 1792, 6510, 6521, 1843, 1842
5313, 1762, 1761, 6221, 6214, 1812, 1811, 6474, 6467
5314, 6214, 6222, 1763, 1762, 6467, 6475, 1813, 1812
5315, 6225, 6258, 1770, 1769, 6478, 6511, 1820, 1819
5316, 6251, 6289, 6225, 6215, 6504, 6542, 6478, 6468
5317, 6237, 6265, 1802, 1801, 6490, 6518, 1852, 1851
5318, 6265, 6238, 1803, 1802, 6518, 6491, 1853, 1852
5319, 6218, 6240, 1807, 1806, 6471, 6493, 1857, 1856
5320, 6431, 6336, 6218, 6239, 6684, 6589, 6471, 6492
5321, 6219, 6241, 1809, 1808, 6472, 6494, 1859, 1858
5322, 6253, 6337, 6219, 6240, 6506, 6590, 6472, 6493
5323, 6241, 6220, 1760, 1809, 6494, 6473, 1810, 1859
5324, 6337, 6254, 6241, 6219, 6590, 6507, 6494, 6472
5325, 6221, 6242, 6423, 6214, 6474, 6495, 6676, 6467
5326, 6290, 6311, 6223, 6255, 6543, 6564, 6476, 6508
5327, 6256, 6224, 1767, 1766, 6509, 6477, 1817, 1816
5328, 6243, 6251, 6215, 6224, 6496, 6504, 6468, 6477
5329, 6300, 6317, 6226, 6258, 6553, 6570, 6479, 6511
5330, 6297, 6273, 6243, 6280, 6550, 6526, 6496, 6533
5331, 6245, 6304, 6211, 6227, 6498, 6557, 6464, 6480
5332, 6322, 6312, 6347, 6361, 6575, 6565, 6600, 6614
5333, 6275, 6283, 6271, 6260, 6528, 6536, 6524, 6513
5334, 6229, 6263, 1781, 1780, 6482, 6516, 1831, 1830
5335, 6263, 6230, 1782, 1781, 6516, 6483, 1832, 1831
5336, 6261, 6212, 6305, 6274, 6514, 6465, 6558, 6527
5337, 6274, 6305, 6376, 6293, 6527, 6558, 6629, 6546
5338, 6274, 6288, 6270, 6261, 6527, 6541, 6523, 6514
5339, 6232, 6259, 1789, 1788, 6485, 6512, 1839, 1838
5340, 6259, 6233, 1790, 1789, 6512, 6486, 1840, 1839
5341, 6398, 6244, 6233, 6259, 6651, 6497, 6486, 6512
5342, 6273, 6306, 6251, 6243, 6526, 6559, 6504, 6496
5343, 6276, 6286, 6268, 6257, 6529, 6539, 6521, 6510
5344, 6235, 6269, 1797, 1796, 6488, 6522, 1847, 1846
5345, 6432, 6443, 6315, 6272, 6685, 6696, 6568, 6525
5346, 6427, 6307, 6299, 6250, 6680, 6560, 6552, 6503
5347, 6217, 6249, 6431, 6239, 6470, 6502, 6684, 6492
5348, 6214, 6423, 6252, 6222, 6467, 6676, 6505, 6475
5349, 6286, 6276, 6294, 6296, 6539, 6529, 6547, 6549
5350, 6289, 6300, 6258, 6225, 6542, 6553, 6511, 6478
5351, 6244, 6303, 6213, 6233, 6497, 6556, 6466, 6486
5352, 6257, 6213, 6303, 6276, 6510, 6466, 6556, 6529
5353, 6260, 6211, 6304, 6275, 6513, 6464, 6557, 6528
5354, 6331, 6425, 6229, 6262, 6584, 6678, 6482, 6515
5355, 6246, 6305, 6212, 6230, 6499, 6558, 6465, 6483
5356, 6288, 6274, 6293, 6437, 6541, 6527, 6546, 6690
5357, 6247, 6282, 6237, 6216, 6500, 6535, 6490, 6469
5358, 6282, 6272, 6307, 6427, 6535, 6525, 6560, 6680
5359, 6308, 6321, 6235, 6266, 6561, 6574, 6488, 6519
5360, 6307, 6442, 6316, 6299, 6560, 6695, 6569, 6552
5361, 6342, 6434, 6300, 6289, 6595, 6687, 6553, 6542
5362, 6280, 6311, 6327, 6297, 6533, 6564, 6580, 6550
5363, 6290, 6252, 6417, 6348, 6543, 6505, 6670, 6601
5364, 6254, 6338, 6220, 6241, 6507, 6591, 6473, 6494
5365, 6446, 6445, 6379, 6355, 6699, 6698, 6632, 6608
5366, 6268, 6234, 1794, 1793, 6521, 6487, 1844, 1843
5367, 6271, 6228, 1778, 1777, 6524, 6481, 1828, 1827
5368, 6270, 6231, 1786, 1785, 6523, 6484, 1836, 1835
5369, 6421, 6227, 1774, 1773, 6674, 6480, 1824, 1823
5370, 6286, 6284, 6234, 6268, 6539, 6537, 6487, 6521
5371, 6422, 6236, 1799, 1798, 6675, 6489, 1849, 1848
5372, 6288, 6287, 6231, 6270, 6541, 6540, 6484, 6523
5373, 6283, 6278, 6228, 6271, 6536, 6531, 6481, 6524
5374, 6306, 6342, 6289, 6251, 6559, 6595, 6542, 6504
5375, 6436, 6292, 6275, 6304, 6689, 6545, 6528, 6557
5376, 6304, 6245, 6320, 6436, 6557, 6498, 6573, 6689
5377, 6278, 6331, 6262, 6228, 6531, 6584, 6515, 6481
5378, 6303, 6244, 6339, 6439, 6556, 6497, 6592, 6692
5379, 6284, 6308, 6266, 6234, 6537, 6561, 6519, 6487
5380, 6439, 6339, 6352, 6323, 6692, 6592, 6605, 6576
5381, 6318, 6345, 6331, 6278, 6571, 6598, 6584, 6531
5382, 6305, 6246, 6298, 6376, 6558, 6499, 6551, 6629
5383, 6279, 6287, 6291, 6438, 6532, 6540, 6544, 6691
5384, 6264, 6231, 6287, 6279, 6517, 6484, 6540, 6532
5385, 6223, 6311, 6280, 6256, 6476, 6564, 6533, 6509
5386, 6440, 6302, 6433, 6321, 6693, 6555, 6686, 6574
5387, 6294, 6439, 6323, 6309, 6547, 6692, 6576, 6562
5388, 6267, 6226, 6317, 6285, 6520, 6479, 6570, 6538
5389, 6432, 6247, 6248, 6302, 6685, 6500, 6501, 6555
5390, 6287, 6288, 6437, 6291, 6540, 6541, 6690, 6544
5391, 6273, 6297, 6312, 6314, 6526, 6550, 6565, 6567
5392, 6322, 6349, 6314, 6312, 6575, 6602, 6567, 6565
5393, 6295, 6318, 6278, 6283, 6548, 6571, 6531, 6536
5394, 6387, 6383, 6381, 6363, 6640, 6636, 6634, 6616
5395, 6296, 6380, 6284, 6286, 6549, 6633, 6537, 6539
5396, 6294, 6309, 6324, 6296, 6547, 6562, 6577, 6549
5397, 6327, 6347, 6312, 6297, 6580, 6600, 6565, 6550
5398, 6452, 6323, 6352, 6350, 6705, 6576, 6605, 6603
5399, 6336, 6431, 6430, 6429, 6589, 6684, 6683, 6682
5400, 6332, 6434, 6342, 6341, 6585, 6687, 6595, 6594
5401, 6364, 6447, 6341, 6329, 6617, 6700, 6594, 6582
5402, 6301, 6435, 6424, 6285, 6554, 6688, 6677, 6538
5403, 6433, 6302, 6248, 6426, 6686, 6555, 6501, 6679
5404, 6329, 6341, 6342, 6306, 6582, 6594, 6595, 6559
5405, 6247, 6432, 6272, 6282, 6500, 6685, 6525, 6535
5406, 6313, 6440, 6321, 6308, 6566, 6693, 6574, 6561
5407, 6380, 6358, 6328, 6313, 6633, 6611, 6581, 6566
5408, 6389, 6387, 6409, 6402, 6642, 6640, 6662, 6655
5409, 6449, 6333, 6436, 6320, 6702, 6586, 6689, 6573
5410, 6310, 6450, 6295, 6292, 6563, 6703, 6548, 6545
5411, 6311, 6290, 6348, 6327, 6564, 6543, 6601, 6580
5412, 6314, 6329, 6306, 6273, 6567, 6582, 6559, 6526
5413, 6443, 6432, 6302, 6328, 6696, 6685, 6555, 6581
5414, 6349, 6364, 6329, 6314, 6602, 6617, 6582, 6567
5415, 6442, 6360, 6367, 6316, 6695, 6613, 6620, 6569
5416, 6442, 6307, 6272, 6315, 6695, 6560, 6525, 6568
5417, 6299, 6316, 6335, 6319, 6552, 6569, 6588, 6572
5418, 6351, 6428, 6330, 6441, 6604, 6681, 6583, 6694
5419, 6285, 6317, 6332, 6301, 6538, 6570, 6585, 6554
5420, 6319, 6430, 6250, 6299, 6572, 6683, 6503, 6552
5421, 6446, 6355, 6340, 6378, 6699, 6608, 6593, 6631
5422, 6292, 6436, 6333, 6310, 6545, 6689, 6586, 6563
5423, 6435, 6326, 6449, 6320, 6688, 6579, 6702, 6573
5424, 6321, 6433, 6269, 6235, 6574, 6686, 6522, 6488
5425, 6367, 6373, 6444, 6357, 6620, 6626, 6697, 6610
5426, 6346, 6443, 6328, 6358, 6599, 6696, 6581, 6611
5427, 6298, 6345, 6359, 6353, 6551, 6598, 6612, 6606
5428, 6435, 6301, 6447, 6326, 6688, 6554, 6700, 6579
5429, 6449, 6326, 6354, 6344, 6702, 6579, 6607, 6597
5430, 6334, 6377, 6375, 6417, 6587, 6630, 6628, 6670
5431, 6328, 6302, 6440, 6313, 6581, 6555, 6693, 6566
5432, 6341, 6447, 6301, 6332, 6594, 6700, 6554, 6585
5433, 6340, 6338, 6254, 6378, 6593, 6591, 6507, 6631
5434, 6425, 6281, 6263, 6229, 6678, 6534, 6516, 6482
5435, 6281, 6425, 6331, 6345, 6534, 6678, 6584, 6598
5436, 6456, 6450, 6310, 6333, 6709, 6703, 6563, 6586
5437, 6338, 6340, 6366, 6242, 6591, 6593, 6619, 6495
5438, 6242, 6366, 6334, 6423, 6495, 6619, 6587, 6676
5439, 6369, 6343, 6458, 6459, 6622, 6596, 6711, 6712
5440, 6428, 6337, 6253, 6330, 6681, 6590, 6506, 6583
5441, 6439, 6294, 6276, 6303, 6692, 6547, 6529, 6556
5442, 6379, 6444, 6393, 6388, 6632, 6697, 6646, 6641
5443, 6343, 6358, 6324, 6309, 6596, 6611, 6577, 6562
5444, 6358, 6343, 6369, 6346, 6611, 6596, 6622, 6599
5445, 6361, 6382, 6363, 6322, 6614, 6635, 6616, 6575
5446, 6345, 6318, 6325, 6359, 6598, 6571, 6578, 6612
5447, 6455, 6404, 6451, 6392, 6708, 6657, 6704, 6645
5448, 6353, 6392, 6376, 6298, 6606, 6645, 6629, 6551
5449, 6315, 6448, 6360, 6442, 6568, 6701, 6613, 6695
5450, 6357, 6335, 6316, 6367, 6610, 6588, 6569, 6620
5451, 6362, 6347, 6327, 6348, 6615, 6600, 6580, 6601
5452, 6371, 6366, 6340, 6355, 6624, 6619, 6593, 6608
5453, 6364, 6349, 6381, 6354, 6617, 6602, 6634, 6607
5454, 6365, 6458, 6350, 6395, 6618, 6711, 6603, 6648
5455, 6452, 6343, 6309, 6323, 6705, 6596, 6562, 6576
5456, 6253, 6336, 6429, 6330, 6506, 6589, 6682, 6583
5457, 6370, 6356, 6398, 6277, 6623, 6609, 6651, 6530
5458, 6370, 6438, 6291, 6397, 6623, 6691, 6544, 6650
5459, 6354, 6326, 6447, 6364, 6607, 6579, 6700, 6617
5460, 6450, 6456, 6385, 6325, 6703, 6709, 6638, 6578
5461, 6366, 6371, 6377, 6334, 6619, 6624, 6630, 6587
5462, 6244, 6398, 6356, 6339, 6497, 6651, 6609, 6592
5463, 6384, 6399, 6412, 6386, 6637, 6652, 6665, 6639
5464, 6335, 6357, 6445, 6441, 6588, 6610, 6698, 6694
5465, 6380, 6296, 6324, 6358, 6633, 6549, 6577, 6611
5466, 6448, 6384, 6372, 6360, 6701, 6637, 6625, 6613
5467, 6363, 6381, 6349, 6322, 6616, 6634, 6602, 6575
5468, 6368, 6457, 6385, 6462, 6621, 6710, 6638, 6715
5469, 6347, 6362, 6374, 6361, 6600, 6615, 6627, 6614
5470, 6348, 6417, 6375, 6362, 6601, 6670, 6628, 6615
5471, 6368, 6462, 6344, 6383, 6621, 6715, 6597, 6636
5472, 6458, 6343, 6452, 6350, 6711, 6596, 6705, 6603
5473, 6386, 6454, 6372, 6384, 6639, 6707, 6625, 6637
5474, 6359, 6325, 6385, 6457, 6612, 6578, 6638, 6710
5475, 6346, 6369, 6384, 6448, 6599, 6622, 6637, 6701
5476, 6360, 6372, 6373, 6367, 6613, 6625, 6626, 6620
5477, 6391, 6395, 6350, 6352, 6644, 6648, 6603, 6605
5478, 6416, 6374, 6362, 6375, 6669, 6627, 6615, 6628
5479, 6379, 6388, 6371, 6355, 6632, 6641, 6624, 6608
5480, 6407, 6382, 6394, 6406, 6660, 6635, 6647, 6659
5481, 6361, 6374, 6394, 6382, 6614, 6627, 6647, 6635
5482, 6252, 6423, 6334, 6417, 6505, 6676, 6587, 6670
5483, 6392, 6451, 6293, 6376, 6645, 6704, 6546, 6629
5484, 6401, 6377, 6371, 6388, 6654, 6630, 6624, 6641
5485, 6428, 6351, 6446, 6378, 6681, 6604, 6699, 6631
5486, 6337, 6428, 6378, 6254, 6590, 6681, 6631, 6507
5487, 6445, 6357, 6444, 6379, 6698, 6610, 6697, 6632
5488, 6383, 6344, 6354, 6381, 6636, 6597, 6607, 6634
5489, 6389, 6368, 6383, 6387, 6642, 6621, 6636, 6640
5490, 6407, 6410, 6409, 6382, 6660, 6663, 6662, 6635
5491, 6462, 6385, 6456, 6344, 6715, 6638, 6709, 6597
5492, 6369, 6459, 6399, 6384, 6622, 6712, 6652, 6637
5493, 6363, 6382, 6409, 6387, 6616, 6635, 6662, 6640
5494, 6388, 6393, 6411, 6401, 6641, 6646, 6664, 6654
5495, 6402, 6409, 6410, 6413, 6655, 6662, 6663, 6666
5496, 6402, 6413, 6408, 6460, 6655, 6666, 6661, 6713
5497, 6418, 6365, 6395, 6414, 6671, 6618, 6648, 6667
5498, 6370, 6397, 6391, 6356, 6623, 6650, 6644, 6609
5499, 6353, 6359, 6455, 6392, 6606, 6612, 6708, 6645
5500, 6291, 6437, 6419, 6397, 6544, 6690, 6672, 6650
5501, 6403, 6393, 6444, 6373, 6656, 6646, 6697, 6626
5502, 6461, 6459, 6458, 6365, 6714, 6712, 6711, 6618
5503, 6405, 6461, 6365, 6418, 6658, 6714, 6618, 6671
5504, 6396, 6457, 6368, 6389, 6649, 6710, 6621, 6642
5505, 6397, 6419, 6400, 6391, 6650, 6672, 6653, 6644
5506, 6404, 6390, 6414, 6400, 6657, 6643, 6667, 6653
5507, 6400, 6414, 6395, 6391, 6653, 6667, 6648, 6644
5508, 6401, 6411, 6406, 6416, 6654, 6664, 6659, 6669
5509, 6416, 6375, 6377, 6401, 6669, 6628, 6630, 6654
5510, 6407, 6412, 6453, 6410, 6660, 6665, 6706, 6663
5511, 6389, 6402, 6460, 6396, 6642, 6655, 6713, 6649
5512, 6454, 6386, 6415, 6403, 6707, 6639, 6668, 6656
5513, 6390, 6404, 6455, 6463, 6643, 6657, 6708, 6716
5514, 6420, 6461, 6405, 6413, 6673, 6714, 6658, 6666
5515, 6374, 6416, 6406, 6394, 6627, 6669, 6659, 6647
5516, 6415, 6407, 6406, 6411, 6668, 6660, 6659, 6664
5517, 6408, 6418, 6414, 6390, 6661, 6671, 6667, 6643
5518, 6410, 6453, 6420, 6413, 6663, 6706, 6673, 6666
5519, 6403, 6415, 6411, 6393, 6656, 6668, 6664, 6646
5520, 6413, 6405, 6418, 6408, 6666, 6658, 6671, 6661
5521, 6461, 6420, 6399, 6459, 6714, 6673, 6652, 6712
5522, 6415, 6386, 6412, 6407, 6668, 6639, 6665, 6660
5523, 6451, 6404, 6400, 6419, 6704, 6657, 6653, 6672
5524, 6437, 6293, 6451, 6419, 6690, 6546, 6704, 6672
5525, 6412, 6399, 6420, 6453, 6665, 6652, 6673, 6706
5526, 6424, 6245, 6227, 6421, 6677, 6498, 6480, 6674
5527, 6426, 6248, 6236, 6422, 6679, 6501, 6489, 6675
5528, 6435, 6320, 6245, 6424, 6688, 6573, 6498, 6677
5529, 6427, 6250, 6238, 6265, 6680, 6503, 6491, 6518
5530, 6429, 6430, 6319, 6330, 6682, 6683, 6572, 6583
5531, 6434, 6332, 6317, 6300, 6687, 6585, 6570, 6553
5532, 6438, 6370, 6277, 6279, 6691, 6623, 6530, 6532
5533, 6441, 6330, 6319, 6335, 6694, 6583, 6572, 6588
5534, 6443, 6346, 6448, 6315, 6696, 6599, 6701, 6568
5535, 6446, 6351, 6441, 6445, 6699, 6604, 6694, 6698
5536, 6449, 6344, 6456, 6333, 6702, 6597, 6709, 6586
5537, 6454, 6403, 6373, 6372, 6707, 6656, 6626, 6625
5538, 6463, 6455, 6359, 6457, 6716, 6708, 6612, 6710
5539, 6390, 6463, 6460, 6408, 6643, 6716, 6713, 6661
5540, 6463, 6457, 6396, 6460, 6716, 6710, 6649, 6713
5541, 1819, 1818, 6468, 6478, 1869, 1868, 6721, 6731
5542, 6674, 6520, 6538, 6677, 6927, 6773, 6791, 6930
5543, 6464, 6513, 1826, 1825, 6717, 6766, 1876, 1875
5544, 6481, 6515, 1829, 1828, 6734, 6768, 1879, 1878
5545, 6551, 6499, 6534, 6598, 6804, 6752, 6787, 6851
5546, 1833, 1832, 6483, 6465, 1883, 1882, 6736, 6718
5547, 6545, 6548, 6536, 6528, 6798, 6801, 6789, 6781
5548, 6517, 6485, 1838, 1837, 6770, 6738, 1888, 1887
5549, 6512, 6485, 6530, 6651, 6765, 6738, 6783, 6904
5550, 6466, 6510, 1842, 1841, 6719, 6763, 1892, 1891
5551, 6487, 6519, 1845, 1844, 6740, 6772, 1895, 1894
5552, 6633, 6566, 6561, 6537, 6886, 6819, 6814, 6790
5553, 1850, 1849, 6489, 6469, 1900, 1899, 6742, 6722
5554, 6469, 6490, 1851, 1850, 6722, 6743, 1901, 1900
5555, 6475, 6508, 1814, 1813, 6728, 6761, 1864, 1863
5556, 6476, 6509, 1816, 1815, 6729, 6762, 1866, 1865
5557, 1818, 1817, 6477, 6468, 1868, 1867, 6730, 6721
5558, 6511, 6479, 1821, 1820, 6764, 6732, 1871, 1870
5559, 1854, 1853, 6491, 6470, 1904, 1903, 6744, 6723
5560, 6485, 6517, 6532, 6530, 6738, 6770, 6785, 6783
5561, 6470, 6491, 6503, 6502, 6723, 6744, 6756, 6755
5562, 6535, 6680, 6518, 6490, 6788, 6933, 6771, 6743
5563, 6589, 6506, 6493, 6471, 6842, 6759, 6746, 6724
5564, 1811, 1810, 6473, 6474, 1861, 1860, 6726, 6727
5565, 6534, 6499, 6483, 6516, 6787, 6752, 6736, 6769
5566, 6508, 6476, 1815, 1814, 6761, 6729, 1865, 1864
5567, 6477, 6509, 6533, 6496, 6730, 6762, 6786, 6749
5568, 6508, 6475, 6505, 6543, 6761, 6728, 6758, 6796
5569, 6479, 6520, 1822, 1821, 6732, 6773, 1872, 1871
5570, 1823, 1822, 6520, 6674, 1873, 1872, 6773, 6927
5571, 1825, 1824, 6480, 6464, 1875, 1874, 6733, 6717
5572, 6513, 6524, 1827, 1826, 6766, 6777, 1877, 1876
5573, 6515, 6482, 1830, 1829, 6768, 6735, 1880, 1879
5574, 6465, 6514, 1834, 1833, 6718, 6767, 1884, 1883
5575, 6484, 6517, 1837, 1836, 6737, 6770, 1887, 1886
5576, 6609, 6644, 6605, 6592, 6862, 6897, 6858, 6845
5577, 1841, 1840, 6486, 6466, 1891, 1890, 6739, 6719
5578, 6571, 6548, 6703, 6578, 6824, 6801, 6956, 6831
5579, 6519, 6488, 1846, 1845, 6772, 6741, 1896, 1895
5580, 1848, 1847, 6522, 6675, 1898, 1897, 6775, 6928
5581, 6675, 6522, 6686, 6679, 6928, 6775, 6939, 6932
5582, 6501, 6500, 6469, 6489, 6754, 6753, 6722, 6742
5583, 6470, 6492, 1855, 1854, 6723, 6745, 1905, 1904
5584, 6492, 6471, 1856, 1855, 6745, 6724, 1906, 1905
5585, 6493, 6472, 1858, 1857, 6746, 6725, 1908, 1907
5586, 6683, 6684, 6502, 6503, 6936, 6937, 6755, 6756
5587, 6495, 6474, 6473, 6591, 6748, 6727, 6726, 6844
5588, 6514, 6523, 1835, 1834, 6767, 6776, 1885, 1884
5589, 6510, 6521, 1843, 1842, 6763, 6774, 1893, 1892
5590, 1812, 1811, 6474, 6467, 1862, 1861, 6727, 6720
5591, 6467, 6475, 1813, 1812, 6720, 6728, 1863, 1862
5592, 6478, 6511, 1820, 1819, 6731, 6764, 1870, 1869
5593, 6504, 6542, 6478, 6468, 6757, 6795, 6731, 6721
5594, 6490, 6518, 1852, 1851, 6743, 6771, 1902, 1901
5595, 6518, 6491, 1853, 1852, 6771, 6744, 1903, 1902
5596, 6471, 6493, 1857, 1856, 6724, 6746, 1907, 1906
5597, 6684, 6589, 6471, 6492, 6937, 6842, 6724, 6745
5598, 6472, 6494, 1859, 1858, 6725, 6747, 1909, 1908
5599, 6506, 6590, 6472, 6493, 6759, 6843, 6725, 6746
5600, 6494, 6473, 1810, 1859, 6747, 6726, 1860, 1909
5601, 6590, 6507, 6494, 6472, 6843, 6760, 6747, 6725
5602, 6474, 6495, 6676, 6467, 6727, 6748, 6929, 6720
5603, 6543, 6564, 6476, 6508, 6796, 6817, 6729, 6761
5604, 6509, 6477, 1817, 1816, 6762, 6730, 1867, 1866
5605, 6496, 6504, 6468, 6477, 6749, 6757, 6721, 6730
5606, 6553, 6570, 6479, 6511, 6806, 6823, 6732, 6764
5607, 6550, 6526, 6496, 6533, 6803, 6779, 6749, 6786
5608, 6498, 6557, 6464, 6480, 6751, 6810, 6717, 6733
5609, 6575, 6565, 6600, 6614, 6828, 6818, 6853, 6867
5610, 6528, 6536, 6524, 6513, 6781, 6789, 6777, 6766
5611, 6482, 6516, 1831, 1830, 6735, 6769, 1881, 1880
5612, 6516, 6483, 1832, 1831, 6769, 6736, 1882, 1881
5613, 6514, 6465, 6558, 6527, 6767, 6718, 6811, 6780
5614, 6527, 6558, 6629, 6546, 6780, 6811, 6882, 6799
5615, 6527, 6541, 6523, 6514, 6780, 6794, 6776, 6767
5616, 6485, 6512, 1839, 1838, 6738, 6765, 1889, 1888
5617, 6512, 6486, 1840, 1839, 6765, 6739, 1890, 1889
5618, 6651, 6497, 6486, 6512, 6904, 6750, 6739, 6765
5619, 6526, 6559, 6504, 6496, 6779, 6812, 6757, 6749
5620, 6529, 6539, 6521, 6510, 6782, 6792, 6774, 6763
5621, 6488, 6522, 1847, 1846, 6741, 6775, 1897, 1896
5622, 6685, 6696, 6568, 6525, 6938, 6949, 6821, 6778
5623, 6680, 6560, 6552, 6503, 6933, 6813, 6805, 6756
5624, 6470, 6502, 6684, 6492, 6723, 6755, 6937, 6745
5625, 6467, 6676, 6505, 6475, 6720, 6929, 6758, 6728
5626, 6539, 6529, 6547, 6549, 6792, 6782, 6800, 6802
5627, 6542, 6553, 6511, 6478, 6795, 6806, 6764, 6731
5628, 6497, 6556, 6466, 6486, 6750, 6809, 6719, 6739
5629, 6510, 6466, 6556, 6529, 6763, 6719, 6809, 6782
5630, 6513, 6464, 6557, 6528, 6766, 6717, 6810, 6781
5631, 6584, 6678, 6482, 6515, 6837, 6931, 6735, 6768
5632, 6499, 6558, 6465, 6483, 6752, 6811, 6718, 6736
5633, 6541, 6527, 6546, 6690, 6794, 6780, 6799, 6943
5634, 6500, 6535, 6490, 6469, 6753, 6788, 6743, 6722
5635, 6535, 6525, 6560, 6680, 6788, 6778, 6813, 6933
5636, 6561, 6574, 6488, 6519, 6814, 6827, 6741, 6772
5637, 6560, 6695, 6569, 6552, 6813, 6948, 6822, 6805
5638, 6595, 6687, 6553, 6542, 6848, 6940, 6806, 6795
5639, 6533, 6564, 6580, 6550, 6786, 6817, 6833, 6803
5640, 6543, 6505, 6670, 6601, 6796, 6758, 6923, 6854
5641, 6507, 6591, 6473, 6494, 6760, 6844, 6726, 6747
5642, 6699, 6698, 6632, 6608, 6952, 6951, 6885, 6861
5643, 6521, 6487, 1844, 1843, 6774, 6740, 1894, 1893
5644, 6524, 6481, 1828, 1827, 6777, 6734, 1878, 1877
5645, 6523, 6484, 1836, 1835, 6776, 6737, 1886, 1885
5646, 6674, 6480, 1824, 1823, 6927, 6733, 1874, 1873
5647, 6539, 6537, 6487, 6521, 6792, 6790, 6740, 6774
5648, 6675, 6489, 1849, 1848, 6928, 6742, 1899, 1898
5649, 6541, 6540, 6484, 6523, 6794, 6793, 6737, 6776
5650, 6536, 6531, 6481, 6524, 6789, 6784, 6734, 6777
5651, 6559, 6595, 6542, 6504, 6812, 6848, 6795, 6757
5652, 6689, 6545, 6528, 6557, 6942, 6798, 6781, 6810
5653, 6557, 6498, 6573, 6689, 6810, 6751, 6826, 6942
5654, 6531, 6584, 6515, 6481, 6784, 6837, 6768, 6734
5655, 6556, 6497, 6592, 6692, 6809, 6750, 6845, 6945
5656, 6537, 6561, 6519, 6487, 6790, 6814, 6772, 6740
5657, 6692, 6592, 6605, 6576, 6945, 6845, 6858, 6829
5658, 6571, 6598, 6584, 6531, 6824, 6851, 6837, 6784
5659, 6558, 6499, 6551, 6629, 6811, 6752, 6804, 6882
5660, 6532, 6540, 6544, 6691, 6785, 6793, 6797, 6944
5661, 6517, 6484, 6540, 6532, 6770, 6737, 6793, 6785
5662, 6476, 6564, 6533, 6509, 6729, 6817, 6786, 6762
5663, 6693, 6555, 6686, 6574, 6946, 6808, 6939, 6827
5664, 6547, 6692, 6576, 6562, 6800, 6945, 6829, 6815
5665, 6520, 6479, 6570, 6538, 6773, 6732, 6823, 6791
5666, 6685, 6500, 6501, 6555, 6938, 6753, 6754, 6808
5667, 6540, 6541, 6690, 6544, 6793, 6794, 6943, 6797
5668, 6526, 6550, 6565, 6567, 6779, 6803, 6818, 6820
5669, 6575, 6602, 6567, 6565, 6828, 6855, 6820, 6818
5670, 6548, 6571, 6531, 6536, 6801, 6824, 6784, 6789
5671, 6640, 6636, 6634, 6616, 6893, 6889, 6887, 6869
5672, 6549, 6633, 6537, 6539, 6802, 6886, 6790, 6792
5673, 6547, 6562, 6577, 6549, 6800, 6815, 6830, 6802
5674, 6580, 6600, 6565, 6550, 6833, 6853, 6818, 6803
5675, 6705, 6576, 6605, 6603, 6958, 6829, 6858, 6856
5676, 6589, 6684, 6683, 6682, 6842, 6937, 6936, 6935
5677, 6585, 6687, 6595, 6594, 6838, 6940, 6848, 6847
5678, 6617, 6700, 6594, 6582, 6870, 6953, 6847, 6835
5679, 6554, 6688, 6677, 6538, 6807, 6941, 6930, 6791
5680, 6686, 6555, 6501, 6679, 6939, 6808, 6754, 6932
5681, 6582, 6594, 6595, 6559, 6835, 6847, 6848, 6812
5682, 6500, 6685, 6525, 6535, 6753, 6938, 6778, 6788
5683, 6566, 6693, 6574, 6561, 6819, 6946, 6827, 6814
5684, 6633, 6611, 6581, 6566, 6886, 6864, 6834, 6819
5685, 6642, 6640, 6662, 6655, 6895, 6893, 6915, 6908
5686, 6702, 6586, 6689, 6573, 6955, 6839, 6942, 6826
5687, 6563, 6703, 6548, 6545, 6816, 6956, 6801, 6798
5688, 6564, 6543, 6601, 6580, 6817, 6796, 6854, 6833
5689, 6567, 6582, 6559, 6526, 6820, 6835, 6812, 6779
5690, 6696, 6685, 6555, 6581, 6949, 6938, 6808, 6834
5691, 6602, 6617, 6582, 6567, 6855, 6870, 6835, 6820
5692, 6695, 6613, 6620, 6569, 6948, 6866, 6873, 6822
5693, 6695, 6560, 6525, 6568, 6948, 6813, 6778, 6821
5694, 6552, 6569, 6588, 6572, 6805, 6822, 6841, 6825
5695, 6604, 6681, 6583, 6694, 6857, 6934, 6836, 6947
5696, 6538, 6570, 6585, 6554, 6791, 6823, 6838, 6807
5697, 6572, 6683, 6503, 6552, 6825, 6936, 6756, 6805
5698, 6699, 6608, 6593, 6631, 6952, 6861, 6846, 6884
5699, 6545, 6689, 6586, 6563, 6798, 6942, 6839, 6816
5700, 6688, 6579, 6702, 6573, 6941, 6832, 6955, 6826
5701, 6574, 6686, 6522, 6488, 6827, 6939, 6775, 6741
5702, 6620, 6626, 6697, 6610, 6873, 6879, 6950, 6863
5703, 6599, 6696, 6581, 6611, 6852, 6949, 6834, 6864
5704, 6551, 6598, 6612, 6606, 6804, 6851, 6865, 6859
5705, 6688, 6554, 6700, 6579, 6941, 6807, 6953, 6832
5706, 6702, 6579, 6607, 6597, 6955, 6832, 6860, 6850
5707, 6587, 6630, 6628, 6670, 6840, 6883, 6881, 6923
5708, 6581, 6555, 6693, 6566, 6834, 6808, 6946, 6819
5709, 6594, 6700, 6554, 6585, 6847, 6953, 6807, 6838
5710, 6593, 6591, 6507, 6631, 6846, 6844, 6760, 6884
5711, 6678, 6534, 6516, 6482, 6931, 6787, 6769, 6735
5712, 6534, 6678, 6584, 6598, 6787, 6931, 6837, 6851
5713, 6709, 6703, 6563, 6586, 6962, 6956, 6816, 6839
5714, 6591, 6593, 6619, 6495, 6844, 6846, 6872, 6748
5715, 6495, 6619, 6587, 6676, 6748, 6872, 6840, 6929
5716, 6622, 6596, 6711, 6712, 6875, 6849, 6964, 6965
5717, 6681, 6590, 6506, 6583, 6934, 6843, 6759, 6836
5718, 6692, 6547, 6529, 6556, 6945, 6800, 6782, 6809
5719, 6632, 6697, 6646, 6641, 6885, 6950, 6899, 6894
5720, 6596, 6611, 6577, 6562, 6849, 6864, 6830, 6815
5721, 6611, 6596, 6622, 6599, 6864, 6849, 6875, 6852
5722, 6614, 6635, 6616, 6575, 6867, 6888, 6869, 6828
5723, 6598, 6571, 6578, 6612, 6851, 6824, 6831, 6865
5724, 6708, 6657, 6704, 6645, 6961, 6910, 6957, 6898
5725, 6606, 6645, 6629, 6551, 6859, 6898, 6882, 6804
5726, 6568, 6701, 6613, 6695, 6821, 6954, 6866, 6948
5727, 6610, 6588, 6569, 6620, 6863, 6841, 6822, 6873
5728, 6615, 6600, 6580, 6601, 6868, 6853, 6833, 6854
5729, 6624, 6619, 6593, 6608, 6877, 6872, 6846, 6861
5730, 6617, 6602, 6634, 6607, 6870, 6855, 6887, 6860
5731, 6618, 6711, 6603, 6648, 6871, 6964, 6856, 6901
5732, 6705, 6596, 6562, 6576, 6958, 6849, 6815, 6829
5733, 6506, 6589, 6682, 6583, 6759, 6842, 6935, 6836
5734, 6623, 6609, 6651, 6530, 6876, 6862, 6904, 6783
5735, 6623, 6691, 6544, 6650, 6876, 6944, 6797, 6903
5736, 6607, 6579, 6700, 6617, 6860, 6832, 6953, 6870
5737, 6703, 6709, 6638, 6578, 6956, 6962, 6891, 6831
5738, 6619, 6624, 6630, 6587, 6872, 6877, 6883, 6840
5739, 6497, 6651, 6609, 6592, 6750, 6904, 6862, 6845
5740, 6637, 6652, 6665, 6639, 6890, 6905, 6918, 6892
5741, 6588, 6610, 6698, 6694, 6841, 6863, 6951, 6947
5742, 6633, 6549, 6577, 6611, 6886, 6802, 6830, 6864
5743, 6701, 6637, 6625, 6613, 6954, 6890, 6878, 6866
5744, 6616, 6634, 6602, 6575, 6869, 6887, 6855, 6828
5745, 6621, 6710, 6638, 6715, 6874, 6963, 6891, 6968
5746, 6600, 6615, 6627, 6614, 6853, 6868, 6880, 6867
5747, 6601, 6670, 6628, 6615, 6854, 6923, 6881, 6868
5748, 6621, 6715, 6597, 6636, 6874, 6968, 6850, 6889
5749, 6711, 6596, 6705, 6603, 6964, 6849, 6958, 6856
5750, 6639, 6707, 6625, 6637, 6892, 6960, 6878, 6890
5751, 6612, 6578, 6638, 6710, 6865, 6831, 6891, 6963
5752, 6599, 6622, 6637, 6701, 6852, 6875, 6890, 6954
5753, 6613, 6625, 6626, 6620, 6866, 6878, 6879, 6873
5754, 6644, 6648, 6603, 6605, 6897, 6901, 6856, 6858
5755, 6669, 6627, 6615, 6628, 6922, 6880, 6868, 6881
5756, 6632, 6641, 6624, 6608, 6885, 6894, 6877, 6861
5757, 6660, 6635, 6647, 6659, 6913, 6888, 6900, 6912
5758, 6614, 6627, 6647, 6635, 6867, 6880, 6900, 6888
5759, 6505, 6676, 6587, 6670, 6758, 6929, 6840, 6923
5760, 6645, 6704, 6546, 6629, 6898, 6957, 6799, 6882
5761, 6654, 6630, 6624, 6641, 6907, 6883, 6877, 6894
5762, 6681, 6604, 6699, 6631, 6934, 6857, 6952, 6884
5763, 6590, 6681, 6631, 6507, 6843, 6934, 6884, 6760
5764, 6698, 6610, 6697, 6632, 6951, 6863, 6950, 6885
5765, 6636, 6597, 6607, 6634, 6889, 6850, 6860, 6887
5766, 6642, 6621, 6636, 6640, 6895, 6874, 6889, 6893
5767, 6660, 6663, 6662, 6635, 6913, 6916, 6915, 6888
5768, 6715, 6638, 6709, 6597, 6968, 6891, 6962, 6850
5769, 6622, 6712, 6652, 6637, 6875, 6965, 6905, 6890
5770, 6616, 6635, 6662, 6640, 6869, 6888, 6915, 6893
5771, 6641, 6646, 6664, 6654, 6894, 6899, 6917, 6907
5772, 6655, 6662, 6663, 6666, 6908, 6915, 6916, 6919
5773, 6655, 6666, 6661, 6713, 6908, 6919, 6914, 6966
5774, 6671, 6618, 6648, 6667, 6924, 6871, 6901, 6920
5775, 6623, 6650, 6644, 6609, 6876, 6903, 6897, 6862
5776, 6606, 6612, 6708, 6645, 6859, 6865, 6961, 6898
5777, 6544, 6690, 6672, 6650, 6797, 6943, 6925, 6903
5778, 6656, 6646, 6697, 6626, 6909, 6899, 6950, 6879
5779, 6714, 6712, 6711, 6618, 6967, 6965, 6964, 6871
5780, 6658, 6714, 6618, 6671, 6911, 6967, 6871, 6924
5781, 6649, 6710, 6621, 6642, 6902, 6963, 6874, 6895
5782, 6650, 6672, 6653, 6644, 6903, 6925, 6906, 6897
5783, 6657, 6643, 6667, 6653, 6910, 6896, 6920, 6906
5784, 6653, 6667, 6648, 6644, 6906, 6920, 6901, 6897
5785, 6654, 6664, 6659, 6669, 6907, 6917, 6912, 6922
5786, 6669, 6628, 6630, 6654, 6922, 6881, 6883, 6907
5787, 6660, 6665, 6706, 6663, 6913, 6918, 6959, 6916
5788, 6642, 6655, 6713, 6649, 6895, 6908, 6966, 6902
5789, 6707, 6639, 6668, 6656, 6960, 6892, 6921, 6909
5790, 6643, 6657, 6708, 6716, 6896, 6910, 6961, 6969
5791, 6673, 6714, 6658, 6666, 6926, 6967, 6911, 6919
5792, 6627, 6669, 6659, 6647, 6880, 6922, 6912, 6900
5793, 6668, 6660, 6659, 6664, 6921, 6913, 6912, 6917
5794, 6661, 6671, 6667, 6643, 6914, 6924, 6920, 6896
5795, 6663, 6706, 6673, 6666, 6916, 6959, 6926, 6919
5796, 6656, 6668, 6664, 6646, 6909, 6921, 6917, 6899
5797, 6666, 6658, 6671, 6661, 6919, 6911, 6924, 6914
5798, 6714, 6673, 6652, 6712, 6967, 6926, 6905, 6965
5799, 6668, 6639, 6665, 6660, 6921, 6892, 6918, 6913
5800, 6704, 6657, 6653, 6672, 6957, 6910, 6906, 6925
5801, 6690, 6546, 6704, 6672, 6943, 6799, 6957, 6925
5802, 6665, 6652, 6673, 6706, 6918, 6905, 6926, 6959
5803, 6677, 6498, 6480, 6674, 6930, 6751, 6733, 6927
5804, 6679, 6501, 6489, 6675, 6932, 6754, 6742, 6928
5805, 6688, 6573, 6498, 6677, 6941, 6826, 6751, 6930
5806, 6680, 6503, 6491, 6518, 6933, 6756, 6744, 6771
5807, 6682, 6683, 6572, 6583, 6935, 6936, 6825, 6836
5808, 6687, 6585, 6570, 6553, 6940, 6838, 6823, 6806
5809, 6691, 6623, 6530, 6532, 6944, 6876, 6783, 6785
5810, 6694, 6583, 6572, 6588, 6947, 6836, 6825, 6841
5811, 6696, 6599, 6701, 6568, 6949, 6852, 6954, 6821
5812, 6699, 6604, 6694, 6698, 6952, 6857, 6947, 6951
5813, 6702, 6597, 6709, 6586, 6955, 6850, 6962, 6839
5814, 6707, 6656, 6626, 6625, 6960, 6909, 6879, 6878
5815, 6716, 6708, 6612, 6710, 6969, 6961, 6865, 6963
5816, 6643, 6716, 6713, 6661, 6896, 6969, 6966, 6914
5817, 6716, 6710, 6649, 6713, 6969, 6963, 6902, 6966
5818, 1869, 1868, 6721, 6731,  110,  109, 1161, 1171
5819, 6927, 6773, 6791, 6930, 1367, 1213, 1231, 1370
5820, 6717, 6766, 1876, 1875, 1157, 1206,  117,  116
5821, 6734, 6768, 1879, 1878, 1174, 1208,  120,  119
5822, 6804, 6752, 6787, 6851, 1244, 1192, 1227, 1291
5823, 1883, 1882, 6736, 6718,  124,  123, 1176, 1158
5824, 6798, 6801, 6789, 6781, 1238, 1241, 1229, 1221
5825, 6770, 6738, 1888, 1887, 1210, 1178,  129,  128
5826, 6765, 6738, 6783, 6904, 1205, 1178, 1223, 1344
5827, 6719, 6763, 1892, 1891, 1159, 1203,  133,  132
5828, 6740, 6772, 1895, 1894, 1180, 1212,  136,  135
5829, 6886, 6819, 6814, 6790, 1326, 1259, 1254, 1230
5830, 1900, 1899, 6742, 6722,  141,  140, 1182, 1162
5831, 6722, 6743, 1901, 1900, 1162, 1183,  142,  141
5832, 6728, 6761, 1864, 1863, 1168, 1201,  105,  104
5833, 6729, 6762, 1866, 1865, 1169, 1202,  107,  106
5834, 1868, 1867, 6730, 6721,  109,  108, 1170, 1161
5835, 6764, 6732, 1871, 1870, 1204, 1172,  112,  111
5836, 1904, 1903, 6744, 6723,  145,  144, 1184, 1163
5837, 6738, 6770, 6785, 6783, 1178, 1210, 1225, 1223
5838, 6723, 6744, 6756, 6755, 1163, 1184, 1196, 1195
5839, 6788, 6933, 6771, 6743, 1228, 1373, 1211, 1183
5840, 6842, 6759, 6746, 6724, 1282, 1199, 1186, 1164
5841, 1861, 1860, 6726, 6727,  102,    3, 1166, 1167
5842, 6787, 6752, 6736, 6769, 1227, 1192, 1176, 1209
5843, 6761, 6729, 1865, 1864, 1201, 1169,  106,  105
5844, 6730, 6762, 6786, 6749, 1170, 1202, 1226, 1189
5845, 6761, 6728, 6758, 6796, 1201, 1168, 1198, 1236
5846, 6732, 6773, 1872, 1871, 1172, 1213,  113,  112
5847, 1873, 1872, 6773, 6927,  114,  113, 1213, 1367
5848, 1875, 1874, 6733, 6717,  116,  115, 1173, 1157
5849, 6766, 6777, 1877, 1876, 1206, 1217,  118,  117
5850, 6768, 6735, 1880, 1879, 1208, 1175,  121,  120
5851, 6718, 6767, 1884, 1883, 1158, 1207,  125,  124
5852, 6737, 6770, 1887, 1886, 1177, 1210,  128,  127
5853, 6862, 6897, 6858, 6845, 1302, 1337, 1298, 1285
5854, 1891, 1890, 6739, 6719,  132,  131, 1179, 1159
5855, 6824, 6801, 6956, 6831, 1264, 1241, 1396, 1271
5856, 6772, 6741, 1896, 1895, 1212, 1181,  137,  136
5857, 1898, 1897, 6775, 6928,  139,  138, 1215, 1368
5858, 6928, 6775, 6939, 6932, 1368, 1215, 1379, 1372
5859, 6754, 6753, 6722, 6742, 1194, 1193, 1162, 1182
5860, 6723, 6745, 1905, 1904, 1163, 1185,  146,  145
5861, 6745, 6724, 1906, 1905, 1185, 1164,  147,  146
5862, 6746, 6725, 1908, 1907, 1186, 1165,  149,  148
5863, 6936, 6937, 6755, 6756, 1376, 1377, 1195, 1196
5864, 6748, 6727, 6726, 6844, 1188, 1167, 1166, 1284
5865, 6767, 6776, 1885, 1884, 1207, 1216,  126,  125
5866, 6763, 6774, 1893, 1892, 1203, 1214,  134,  133
5867, 1862, 1861, 6727, 6720,  103,  102, 1167, 1160
5868, 6720, 6728, 1863, 1862, 1160, 1168,  104,  103
5869, 6731, 6764, 1870, 1869, 1171, 1204,  111,  110
5870, 6757, 6795, 6731, 6721, 1197, 1235, 1171, 1161
5871, 6743, 6771, 1902, 1901, 1183, 1211,  143,  142
5872, 6771, 6744, 1903, 1902, 1211, 1184,  144,  143
5873, 6724, 6746, 1907, 1906, 1164, 1186,  148,  147
5874, 6937, 6842, 6724, 6745, 1377, 1282, 1164, 1185
5875, 6725, 6747, 1909, 1908, 1165, 1187,  150,  149
5876, 6759, 6843, 6725, 6746, 1199, 1283, 1165, 1186
5877, 6747, 6726, 1860, 1909, 1187, 1166,    3,  150
5878, 6843, 6760, 6747, 6725, 1283, 1200, 1187, 1165
5879, 6727, 6748, 6929, 6720, 1167, 1188, 1369, 1160
5880, 6796, 6817, 6729, 6761, 1236, 1257, 1169, 1201
5881, 6762, 6730, 1867, 1866, 1202, 1170,  108,  107
5882, 6749, 6757, 6721, 6730, 1189, 1197, 1161, 1170
5883, 6806, 6823, 6732, 6764, 1246, 1263, 1172, 1204
5884, 6803, 6779, 6749, 6786, 1243, 1219, 1189, 1226
5885, 6751, 6810, 6717, 6733, 1191, 1250, 1157, 1173
5886, 6828, 6818, 6853, 6867, 1268, 1258, 1293, 1307
5887, 6781, 6789, 6777, 6766, 1221, 1229, 1217, 1206
5888, 6735, 6769, 1881, 1880, 1175, 1209,  122,  121
5889, 6769, 6736, 1882, 1881, 1209, 1176,  123,  122
5890, 6767, 6718, 6811, 6780, 1207, 1158, 1251, 1220
5891, 6780, 6811, 6882, 6799, 1220, 1251, 1322, 1239
5892, 6780, 6794, 6776, 6767, 1220, 1234, 1216, 1207
5893, 6738, 6765, 1889, 1888, 1178, 1205,  130,  129
5894, 6765, 6739, 1890, 1889, 1205, 1179,  131,  130
5895, 6904, 6750, 6739, 6765, 1344, 1190, 1179, 1205
5896, 6779, 6812, 6757, 6749, 1219, 1252, 1197, 1189
5897, 6782, 6792, 6774, 6763, 1222, 1232, 1214, 1203
5898, 6741, 6775, 1897, 1896, 1181, 1215,  138,  137
5899, 6938, 6949, 6821, 6778, 1378, 1389, 1261, 1218
5900, 6933, 6813, 6805, 6756, 1373, 1253, 1245, 1196
5901, 6723, 6755, 6937, 6745, 1163, 1195, 1377, 1185
5902, 6720, 6929, 6758, 6728, 1160, 1369, 1198, 1168
5903, 6792, 6782, 6800, 6802, 1232, 1222, 1240, 1242
5904, 6795, 6806, 6764, 6731, 1235, 1246, 1204, 1171
5905, 6750, 6809, 6719, 6739, 1190, 1249, 1159, 1179
5906, 6763, 6719, 6809, 6782, 1203, 1159, 1249, 1222
5907, 6766, 6717, 6810, 6781, 1206, 1157, 1250, 1221
5908, 6837, 6931, 6735, 6768, 1277, 1371, 1175, 1208
5909, 6752, 6811, 6718, 6736, 1192, 1251, 1158, 1176
5910, 6794, 6780, 6799, 6943, 1234, 1220, 1239, 1383
5911, 6753, 6788, 6743, 6722, 1193, 1228, 1183, 1162
5912, 6788, 6778, 6813, 6933, 1228, 1218, 1253, 1373
5913, 6814, 6827, 6741, 6772, 1254, 1267, 1181, 1212
5914, 6813, 6948, 6822, 6805, 1253, 1388, 1262, 1245
5915, 6848, 6940, 6806, 6795, 1288, 1380, 1246, 1235
5916, 6786, 6817, 6833, 6803, 1226, 1257, 1273, 1243
5917, 6796, 6758, 6923, 6854, 1236, 1198, 1363, 1294
5918, 6760, 6844, 6726, 6747, 1200, 1284, 1166, 1187
5919, 6952, 6951, 6885, 6861, 1392, 1391, 1325, 1301
5920, 6774, 6740, 1894, 1893, 1214, 1180,  135,  134
5921, 6777, 6734, 1878, 1877, 1217, 1174,  119,  118
5922, 6776, 6737, 1886, 1885, 1216, 1177,  127,  126
5923, 6927, 6733, 1874, 1873, 1367, 1173,  115,  114
5924, 6792, 6790, 6740, 6774, 1232, 1230, 1180, 1214
5925, 6928, 6742, 1899, 1898, 1368, 1182,  140,  139
5926, 6794, 6793, 6737, 6776, 1234, 1233, 1177, 1216
5927, 6789, 6784, 6734, 6777, 1229, 1224, 1174, 1217
5928, 6812, 6848, 6795, 6757, 1252, 1288, 1235, 1197
5929, 6942, 6798, 6781, 6810, 1382, 1238, 1221, 1250
5930, 6810, 6751, 6826, 6942, 1250, 1191, 1266, 1382
5931, 6784, 6837, 6768, 6734, 1224, 1277, 1208, 1174
5932, 6809, 6750, 6845, 6945, 1249, 1190, 1285, 1385
5933, 6790, 6814, 6772, 6740, 1230, 1254, 1212, 1180
5934, 6945, 6845, 6858, 6829, 1385, 1285, 1298, 1269
5935, 6824, 6851, 6837, 6784, 1264, 1291, 1277, 1224
5936, 6811, 6752, 6804, 6882, 1251, 1192, 1244, 1322
5937, 6785, 6793, 6797, 6944, 1225, 1233, 1237, 1384
5938, 6770, 6737, 6793, 6785, 1210, 1177, 1233, 1225
5939, 6729, 6817, 6786, 6762, 1169, 1257, 1226, 1202
5940, 6946, 6808, 6939, 6827, 1386, 1248, 1379, 1267
5941, 6800, 6945, 6829, 6815, 1240, 1385, 1269, 1255
5942, 6773, 6732, 6823, 6791, 1213, 1172, 1263, 1231
5943, 6938, 6753, 6754, 6808, 1378, 1193, 1194, 1248
5944, 6793, 6794, 6943, 6797, 1233, 1234, 1383, 1237
5945, 6779, 6803, 6818, 6820, 1219, 1243, 1258, 1260
5946, 6828, 6855, 6820, 6818, 1268, 1295, 1260, 1258
5947, 6801, 6824, 6784, 6789, 1241, 1264, 1224, 1229
5948, 6893, 6889, 6887, 6869, 1333, 1329, 1327, 1309
5949, 6802, 6886, 6790, 6792, 1242, 1326, 1230, 1232
5950, 6800, 6815, 6830, 6802, 1240, 1255, 1270, 1242
5951, 6833, 6853, 6818, 6803, 1273, 1293, 1258, 1243
5952, 6958, 6829, 6858, 6856, 1398, 1269, 1298, 1296
5953, 6842, 6937, 6936, 6935, 1282, 1377, 1376, 1375
5954, 6838, 6940, 6848, 6847, 1278, 1380, 1288, 1287
5955, 6870, 6953, 6847, 6835, 1310, 1393, 1287, 1275
5956, 6807, 6941, 6930, 6791, 1247, 1381, 1370, 1231
5957, 6939, 6808, 6754, 6932, 1379, 1248, 1194, 1372
5958, 6835, 6847, 6848, 6812, 1275, 1287, 1288, 1252
5959, 6753, 6938, 6778, 6788, 1193, 1378, 1218, 1228
5960, 6819, 6946, 6827, 6814, 1259, 1386, 1267, 1254
5961, 6886, 6864, 6834, 6819, 1326, 1304, 1274, 1259
5962, 6895, 6893, 6915, 6908, 1335, 1333, 1355, 1348
5963, 6955, 6839, 6942, 6826, 1395, 1279, 1382, 1266
5964, 6816, 6956, 6801, 6798, 1256, 1396, 1241, 1238
5965, 6817, 6796, 6854, 6833, 1257, 1236, 1294, 1273
5966, 6820, 6835, 6812, 6779, 1260, 1275, 1252, 1219
5967, 6949, 6938, 6808, 6834, 1389, 1378, 1248, 1274
5968, 6855, 6870, 6835, 6820, 1295, 1310, 1275, 1260
5969, 6948, 6866, 6873, 6822, 1388, 1306, 1313, 1262
5970, 6948, 6813, 6778, 6821, 1388, 1253, 1218, 1261
5971, 6805, 6822, 6841, 6825, 1245, 1262, 1281, 1265
5972, 6857, 6934, 6836, 6947, 1297, 1374, 1276, 1387
5973, 6791, 6823, 6838, 6807, 1231, 1263, 1278, 1247
5974, 6825, 6936, 6756, 6805, 1265, 1376, 1196, 1245
5975, 6952, 6861, 6846, 6884, 1392, 1301, 1286, 1324
5976, 6798, 6942, 6839, 6816, 1238, 1382, 1279, 1256
5977, 6941, 6832, 6955, 6826, 1381, 1272, 1395, 1266
5978, 6827, 6939, 6775, 6741, 1267, 1379, 1215, 1181
5979, 6873, 6879, 6950, 6863, 1313, 1319, 1390, 1303
5980, 6852, 6949, 6834, 6864, 1292, 1389, 1274, 1304
5981, 6804, 6851, 6865, 6859, 1244, 1291, 1305, 1299
5982, 6941, 6807, 6953, 6832, 1381, 1247, 1393, 1272
5983, 6955, 6832, 6860, 6850, 1395, 1272, 1300, 1290
5984, 6840, 6883, 6881, 6923, 1280, 1323, 1321, 1363
5985, 6834, 6808, 6946, 6819, 1274, 1248, 1386, 1259
5986, 6847, 6953, 6807, 6838, 1287, 1393, 1247, 1278
5987, 6846, 6844, 6760, 6884, 1286, 1284, 1200, 1324
5988, 6931, 6787, 6769, 6735, 1371, 1227, 1209, 1175
5989, 6787, 6931, 6837, 6851, 1227, 1371, 1277, 1291
5990, 6962, 6956, 6816, 6839, 1402, 1396, 1256, 1279
5991, 6844, 6846, 6872, 6748, 1284, 1286, 1312, 1188
5992, 6748, 6872, 6840, 6929, 1188, 1312, 1280, 1369
5993, 6875, 6849, 6964, 6965, 1315, 1289, 1404, 1405
5994, 6934, 6843, 6759, 6836, 1374, 1283, 1199, 1276
5995, 6945, 6800, 6782, 6809, 1385, 1240, 1222, 1249
5996, 6885, 6950, 6899, 6894, 1325, 1390, 1339, 1334
5997, 6849, 6864, 6830, 6815, 1289, 1304, 1270, 1255
5998, 6864, 6849, 6875, 6852, 1304, 1289, 1315, 1292
5999, 6867, 6888, 6869, 6828, 1307, 1328, 1309, 1268
6000, 6851, 6824, 6831, 6865, 1291, 1264, 1271, 1305
6001, 6961, 6910, 6957, 6898, 1401, 1350, 1397, 1338
6002, 6859, 6898, 6882, 6804, 1299, 1338, 1322, 1244
6003, 6821, 6954, 6866, 6948, 1261, 1394, 1306, 1388
6004, 6863, 6841, 6822, 6873, 1303, 1281, 1262, 1313
6005, 6868, 6853, 6833, 6854, 1308, 1293, 1273, 1294
6006, 6877, 6872, 6846, 6861, 1317, 1312, 1286, 1301
6007, 6870, 6855, 6887, 6860, 1310, 1295, 1327, 1300
6008, 6871, 6964, 6856, 6901, 1311, 1404, 1296, 1341
6009, 6958, 6849, 6815, 6829, 1398, 1289, 1255, 1269
6010, 6759, 6842, 6935, 6836, 1199, 1282, 1375, 1276
6011, 6876, 6862, 6904, 6783, 1316, 1302, 1344, 1223
6012, 6876, 6944, 6797, 6903, 1316, 1384, 1237, 1343
6013, 6860, 6832, 6953, 6870, 1300, 1272, 1393, 1310
6014, 6956, 6962, 6891, 6831, 1396, 1402, 1331, 1271
6015, 6872, 6877, 6883, 6840, 1312, 1317, 1323, 1280
6016, 6750, 6904, 6862, 6845, 1190, 1344, 1302, 1285
6017, 6890, 6905, 6918, 6892, 1330, 1345, 1358, 1332
6018, 6841, 6863, 6951, 6947, 1281, 1303, 1391, 1387
6019, 6886, 6802, 6830, 6864, 1326, 1242, 1270, 1304
6020, 6954, 6890, 6878, 6866, 1394, 1330, 1318, 1306
6021, 6869, 6887, 6855, 6828, 1309, 1327, 1295, 1268
6022, 6874, 6963, 6891, 6968, 1314, 1403, 1331, 1408
6023, 6853, 6868, 6880, 6867, 1293, 1308, 1320, 1307
6024, 6854, 6923, 6881, 6868, 1294, 1363, 1321, 1308
6025, 6874, 6968, 6850, 6889, 1314, 1408, 1290, 1329
6026, 6964, 6849, 6958, 6856, 1404, 1289, 1398, 1296
6027, 6892, 6960, 6878, 6890, 1332, 1400, 1318, 1330
6028, 6865, 6831, 6891, 6963, 1305, 1271, 1331, 1403
6029, 6852, 6875, 6890, 6954, 1292, 1315, 1330, 1394
6030, 6866, 6878, 6879, 6873, 1306, 1318, 1319, 1313
6031, 6897, 6901, 6856, 6858, 1337, 1341, 1296, 1298
6032, 6922, 6880, 6868, 6881, 1362, 1320, 1308, 1321
6033, 6885, 6894, 6877, 6861, 1325, 1334, 1317, 1301
6034, 6913, 6888, 6900, 6912, 1353, 1328, 1340, 1352
6035, 6867, 6880, 6900, 6888, 1307, 1320, 1340, 1328
6036, 6758, 6929, 6840, 6923, 1198, 1369, 1280, 1363
6037, 6898, 6957, 6799, 6882, 1338, 1397, 1239, 1322
6038, 6907, 6883, 6877, 6894, 1347, 1323, 1317, 1334
6039, 6934, 6857, 6952, 6884, 1374, 1297, 1392, 1324
6040, 6843, 6934, 6884, 6760, 1283, 1374, 1324, 1200
6041, 6951, 6863, 6950, 6885, 1391, 1303, 1390, 1325
6042, 6889, 6850, 6860, 6887, 1329, 1290, 1300, 1327
6043, 6895, 6874, 6889, 6893, 1335, 1314, 1329, 1333
6044, 6913, 6916, 6915, 6888, 1353, 1356, 1355, 1328
6045, 6968, 6891, 6962, 6850, 1408, 1331, 1402, 1290
6046, 6875, 6965, 6905, 6890, 1315, 1405, 1345, 1330
6047, 6869, 6888, 6915, 6893, 1309, 1328, 1355, 1333
6048, 6894, 6899, 6917, 6907, 1334, 1339, 1357, 1347
6049, 6908, 6915, 6916, 6919, 1348, 1355, 1356, 1359
6050, 6908, 6919, 6914, 6966, 1348, 1359, 1354, 1406
6051, 6924, 6871, 6901, 6920, 1364, 1311, 1341, 1360
6052, 6876, 6903, 6897, 6862, 1316, 1343, 1337, 1302
6053, 6859, 6865, 6961, 6898, 1299, 1305, 1401, 1338
6054, 6797, 6943, 6925, 6903, 1237, 1383, 1365, 1343
6055, 6909, 6899, 6950, 6879, 1349, 1339, 1390, 1319
6056, 6967, 6965, 6964, 6871, 1407, 1405, 1404, 1311
6057, 6911, 6967, 6871, 6924, 1351, 1407, 1311, 1364
6058, 6902, 6963, 6874, 6895, 1342, 1403, 1314, 1335
6059, 6903, 6925, 6906, 6897, 1343, 1365, 1346, 1337
6060, 6910, 6896, 6920, 6906, 1350, 1336, 1360, 1346
6061, 6906, 6920, 6901, 6897, 1346, 1360, 1341, 1337
6062, 6907, 6917, 6912, 6922, 1347, 1357, 1352, 1362
6063, 6922, 6881, 6883, 6907, 1362, 1321, 1323, 1347
6064, 6913, 6918, 6959, 6916, 1353, 1358, 1399, 1356
6065, 6895, 6908, 6966, 6902, 1335, 1348, 1406, 1342
6066, 6960, 6892, 6921, 6909, 1400, 1332, 1361, 1349
6067, 6896, 6910, 6961, 6969, 1336, 1350, 1401, 1409
6068, 6926, 6967, 6911, 6919, 1366, 1407, 1351, 1359
6069, 6880, 6922, 6912, 6900, 1320, 1362, 1352, 1340
6070, 6921, 6913, 6912, 6917, 1361, 1353, 1352, 1357
6071, 6914, 6924, 6920, 6896, 1354, 1364, 1360, 1336
6072, 6916, 6959, 6926, 6919, 1356, 1399, 1366, 1359
6073, 6909, 6921, 6917, 6899, 1349, 1361, 1357, 1339
6074, 6919, 6911, 6924, 6914, 1359, 1351, 1364, 1354
6075, 6967, 6926, 6905, 6965, 1407, 1366, 1345, 1405
6076, 6921, 6892, 6918, 6913, 1361, 1332, 1358, 1353
6077, 6957, 6910, 6906, 6925, 1397, 1350, 1346, 1365
6078, 6943, 6799, 6957, 6925, 1383, 1239, 1397, 1365
6079, 6918, 6905, 6926, 6959, 1358, 1345, 1366, 1399
6080, 6930, 6751, 6733, 6927, 1370, 1191, 1173, 1367
6081, 6932, 6754, 6742, 6928, 1372, 1194, 1182, 1368
6082, 6941, 6826, 6751, 6930, 1381, 1266, 1191, 1370
6083, 6933, 6756, 6744, 6771, 1373, 1196, 1184, 1211
6084, 6935, 6936, 6825, 6836, 1375, 1376, 1265, 1276
6085, 6940, 6838, 6823, 6806, 1380, 1278, 1263, 1246
6086, 6944, 6876, 6783, 6785, 1384, 1316, 1223, 1225
6087, 6947, 6836, 6825, 6841, 1387, 1276, 1265, 1281
6088, 6949, 6852, 6954, 6821, 1389, 1292, 1394, 1261
6089, 6952, 6857, 6947, 6951, 1392, 1297, 1387, 1391
6090, 6955, 6850, 6962, 6839, 1395, 1290, 1402, 1279
6091, 6960, 6909, 6879, 6878, 1400, 1349, 1319, 1318
6092, 6969, 6961, 6865, 6963, 1409, 1401, 1305, 1403
6093, 6896, 6969, 6966, 6914, 1336, 1409, 1406, 1354
6094, 6969, 6963, 6902, 6966, 1409, 1403, 1342, 1406
*Nset, nset=_PickedSet4, internal, generate
    1,  6969,     1
*Elset, elset=_PickedSet4, internal, generate
    1,  6094,     1
*Nset, nset=Set-1
  1,  4,  5,  6,  7,  8,  9, 10, 11, 12, 13, 14, 15, 16, 17, 18
 19, 20, 21, 22, 23, 24, 25, 26, 27, 28, 29, 30, 31, 32, 33, 34
 35, 36, 37, 38, 39, 40, 41, 42, 43, 44, 45, 46, 47, 48, 49, 50
 51, 52
*Elset, elset=Set-1
    1,    3,    4,    6,    8,   10,   11,   13,   14,   15,   16,   17,   18,   19,   24,   26
   29,   30,   31,   32,   33,   34,   35,   37,   39,   40,   43,   44,   45,   48,   49,   50
   51,   52,   54,   55,   56,   58,   60,   64,   71,   72,   76,   77,   81,  103,  104,  105
  106,  108, 3048, 3050, 3051, 3053, 3055, 3057, 3058, 3060, 3061, 3062, 3063, 3064, 3065, 3066
 3071, 3073, 3076, 3077, 3078, 3079, 3080, 3081, 3082, 3084, 3086, 3087, 3090, 3091, 3092, 3095
 3096, 3097, 3098, 3099, 3101, 3102, 3103, 3105, 3107, 3111, 3118, 3119, 3123, 3124, 3128, 3150
 3151, 3152, 3153, 3155
*Nset, nset=Set-base
   2,  53,  54,  55,  56,  57,  58,  59,  60,  61,  62,  63,  64,  65,  66,  67
  68,  69,  70,  71,  72,  73,  74,  75,  76,  77,  78,  79,  80,  81,  82,  83
  84,  85,  86,  87,  88,  89,  90,  91,  92,  93,  94,  95,  96,  97,  98,  99
 100, 101
*Elset, elset=Set-base
 2771, 2773, 2774, 2776, 2778, 2780, 2781, 2783, 2784, 2785, 2786, 2787, 2788, 2789, 2794, 2796
 2799, 2800, 2801, 2802, 2803, 2804, 2805, 2807, 2809, 2810, 2813, 2814, 2815, 2818, 2819, 2820
 2821, 2822, 2824, 2825, 2826, 2828, 2830, 2834, 2841, 2842, 2846, 2847, 2851, 2873, 2874, 2875
 2876, 2878
*Nset, nset=Set-top
   3, 102, 103, 104, 105, 106, 107, 108, 109, 110, 111, 112, 113, 114, 115, 116
 117, 118, 119, 120, 121, 122, 123, 124, 125, 126, 127, 128, 129, 130, 131, 132
 133, 134, 135, 136, 137, 138, 139, 140, 141, 142, 143, 144, 145, 146, 147, 148
 149, 150
*Elset, elset=Set-top
 5818, 5820, 5821, 5823, 5825, 5827, 5828, 5830, 5831, 5832, 5833, 5834, 5835, 5836, 5841, 5843
 5846, 5847, 5848, 5849, 5850, 5851, 5852, 5854, 5856, 5857, 5860, 5861, 5862, 5865, 5866, 5867
 5868, 5869, 5871, 5872, 5873, 5875, 5877, 5881, 5888, 5889, 5893, 5894, 5898, 5920, 5921, 5922
 5923, 5925
** Section: Section-1
*Solid Section, elset=_PickedSet4, material="JC Steel"
,
*End Instance
**  
*Nset, nset=Set-2, instance=Part-1-1, generate
    1,  6969,     1
*Elset, elset=Set-2, instance=Part-1-1, generate
    1,  6094,     1
*Nset, nset=Set-3, instance=Part-1-1
    3,  102,  103,  104,  105,  106,  107,  108,  109,  110,  111,  112,  113,  114,  115,  116
  117,  118,  119,  120,  121,  122,  123,  124,  125,  126,  127,  128,  129,  130,  131,  132
  133,  134,  135,  136,  137,  138,  139,  140,  141,  142,  143,  144,  145,  146,  147,  148
  149,  150, 1157, 1158, 1159, 1160, 1161, 1162, 1163, 1164, 1165, 1166, 1167, 1168, 1169, 1170
 1171, 1172, 1173, 1174, 1175, 1176, 1177, 1178, 1179, 1180, 1181, 1182, 1183, 1184, 1185, 1186
 1187, 1188, 1189, 1190, 1191, 1192, 1193, 1194, 1195, 1196, 1197, 1198, 1199, 1200, 1201, 1202
 1203, 1204, 1205, 1206, 1207, 1208, 1209, 1210, 1211, 1212, 1213, 1214, 1215, 1216, 1217, 1218
 1219, 1220, 1221, 1222, 1223, 1224, 1225, 1226, 1227, 1228, 1229, 1230, 1231, 1232, 1233, 1234
 1235, 1236, 1237, 1238, 1239, 1240, 1241, 1242, 1243, 1244, 1245, 1246, 1247, 1248, 1249, 1250
 1251, 1252, 1253, 1254, 1255, 1256, 1257, 1258, 1259, 1260, 1261, 1262, 1263, 1264, 1265, 1266
 1267, 1268, 1269, 1270, 1271, 1272, 1273, 1274, 1275, 1276, 1277, 1278, 1279, 1280, 1281, 1282
 1283, 1284, 1285, 1286, 1287, 1288, 1289, 1290, 1291, 1292, 1293, 1294, 1295, 1296, 1297, 1298
 1299, 1300, 1301, 1302, 1303, 1304, 1305, 1306, 1307, 1308, 1309, 1310, 1311, 1312, 1313, 1314
 1315, 1316, 1317, 1318, 1319, 1320, 1321, 1322, 1323, 1324, 1325, 1326, 1327, 1328, 1329, 1330
 1331, 1332, 1333, 1334, 1335, 1336, 1337, 1338, 1339, 1340, 1341, 1342, 1343, 1344, 1345, 1346
 1347, 1348, 1349, 1350, 1351, 1352, 1353, 1354, 1355, 1356, 1357, 1358, 1359, 1360, 1361, 1362
 1363, 1364, 1365, 1366, 1367, 1368, 1369, 1370, 1371, 1372, 1373, 1374, 1375, 1376, 1377, 1378
 1379, 1380, 1381, 1382, 1383, 1384, 1385, 1386, 1387, 1388, 1389, 1390, 1391, 1392, 1393, 1394
 1395, 1396, 1397, 1398, 1399, 1400, 1401, 1402, 1403, 1404, 1405, 1406, 1407, 1408, 1409
*Elset, elset=Set-3, instance=Part-1-1, generate
 5818,  6094,     1
*Nset, nset=_PickedSet6, internal, instance=Part-1-1
   2,  53,  54,  55,  56,  57,  58,  59,  60,  61,  62,  63,  64,  65,  66,  67
  68,  69,  70,  71,  72,  73,  74,  75,  76,  77,  78,  79,  80,  81,  82,  83
  84,  85,  86,  87,  88,  89,  90,  91,  92,  93,  94,  95,  96,  97,  98,  99
 100, 101, 404, 405, 406, 407, 408, 409, 410, 411, 412, 413, 414, 415, 416, 417
 418, 419, 420, 421, 422, 423, 424, 425, 426, 427, 428, 429, 430, 431, 432, 433
 434, 435, 436, 437, 438, 439, 440, 441, 442, 443, 444, 445, 446, 447, 448, 449
 450, 451, 452, 453, 454, 455, 456, 457, 458, 459, 460, 461, 462, 463, 464, 465
 466, 467, 468, 469, 470, 471, 472, 473, 474, 475, 476, 477, 478, 479, 480, 481
 482, 483, 484, 485, 486, 487, 488, 489, 490, 491, 492, 493, 494, 495, 496, 497
 498, 499, 500, 501, 502, 503, 504, 505, 506, 507, 508, 509, 510, 511, 512, 513
 514, 515, 516, 517, 518, 519, 520, 521, 522, 523, 524, 525, 526, 527, 528, 529
 530, 531, 532, 533, 534, 535, 536, 537, 538, 539, 540, 541, 542, 543, 544, 545
 546, 547, 548, 549, 550, 551, 552, 553, 554, 555, 556, 557, 558, 559, 560, 561
 562, 563, 564, 565, 566, 567, 568, 569, 570, 571, 572, 573, 574, 575, 576, 577
 578, 579, 580, 581, 582, 583, 584, 585, 586, 587, 588, 589, 590, 591, 592, 593
 594, 595, 596, 597, 598, 599, 600, 601, 602, 603, 604, 605, 606, 607, 608, 609
 610, 611, 612, 613, 614, 615, 616, 617, 618, 619, 620, 621, 622, 623, 624, 625
 626, 627, 628, 629, 630, 631, 632, 633, 634, 635, 636, 637, 638, 639, 640, 641
 642, 643, 644, 645, 646, 647, 648, 649, 650, 651, 652, 653, 654, 655, 656
*Elset, elset=_PickedSet6, internal, instance=Part-1-1, generate
 2771,  3047,     1
*End Assembly
*Amplitude, name=Amp-1
             0.,              0.,              236.2,              1.
** 
** MATERIALS
** 
*Material, name="JC Steel"
*Elastic
 7.0e+10, 0.33
*Plastic, hardening=JOHNSON COOK
1.2e+08, 1e+08, 0.5195, 2,   911., 298 
** 
** BOUNDARY CONDITIONS
** 
** Name: BC-1 Type: Displacement/Rotation
*Boundary
_PickedSet6, 1, 1
_PickedSet6, 2, 2
_PickedSet6, 3, 3
** 
** PREDEFINED FIELDS
** 
** Name: Predefined Field-1   Type: Temperature
*Initial Conditions, type=TEMPERATURE
Set-2, 773.
** ----------------------------------------------------------------
** 
** STEP: Ramp
** 
*Step, name=Ramp, nlgeom=YES, inc=1000
*Static
1., 236.2, .01, 10.
** 0.001, 0.2362, 0.00001, 0.01
** 
** BOUNDARY CONDITIONS
** 
** Name: BC-2 Type: Displacement/Rotation
*Boundary, amplitude=Amp-1
Set-3, 3, 3, 0.003
** 
** OUTPUT REQUESTS
** 
*Restart, write, frequency=0
** 
** FIELD OUTPUT: F-Output-2
** 
*Output, field, frequency=1
*Node Output, nset=Part-1-1.Set-1
U, UR, RF
*Element Output, elset=Part-1-1.Set-1, directions=YES
E, S, LE
** 
** FIELD OUTPUT: F-Output-1
** 
*Output, field, frequency=1
*Node Output, nset=Part-1-1.Set-1
U, UR, RF
*Element Output, elset=Part-1-1.Set-1, directions=YES
E, S, LE
** 
** HISTORY OUTPUT: H-Output-2
** 
*Output, history, frequency=1
*Node Output, nset=Part-1-1.Set-1
U3, RF
*Element Output, elset=Part-1-1.Set-1, directions=YES
E, S33, LE
** 
** HISTORY OUTPUT: H-Output-1
** 
*Output, history, frequency=1
*Node Output, nset=Part-1-1.Set-1
  U, RF
*End Step
